5686
178
11977
4245
13075
10458
5839
12371
4
11740
2257
10578
11569
12731
14870
13171
7065
13464
14268
7868
14887
11956
14552
13258
11437
13321
14566
6149
13874
7676
9981
3151
12678
13797
7951
2092
8599
1250
4251
12423
519
8518
7167
3731
8424
7298
2796
10961
13858
10925
3867
117
3551
13919
1525
5048
6301
14789
6060
10277
13424
6612
1324
8525
134
4477
8762
5899
6982
1474
12645
3278
13681
12540
3616
10840
11023
490
7834
9253
8510
14135
1750
2399
5101
5094
10903
9823
1217
14041
3409
7433
5815
9892
5086
2668
14067
3210
12083
14732
14057
1755
8171
4281
14827
7642
13017
9315
13837
11750
13909
12036
6006
1710
970
13062
4719
4993
4525
1650
10643
13964
6423
14689
2094
30
1146
6324
3177
12334
7758
11654
5048
3938
1620
8191
1056
11044
10585
14809
421
367
9760
1403
11391
14811
8933
14829
4211
4617
5481
4431
13873
10377
9040
9807
14949
2170
2161
3612
7316
4183
7566
5905
3517
4337
10623
3545
2912
10085
783
6259
2122
7338
2000
10852
2644
2205
6256
6599
9014
6975
5490
13867
1730
12467
8628
8182
7
5549
654
11546
14386
802
7143
12710
8085
726
12307
6915
12564
7276
995
8351
7956
13764
7815
385
9249
10888
13735
7429
9175
10820
8019
7886
14373
11805
4058
8130
2027
13533
14396
10982
7476
2844
6686
14238
9173
4146
14354
10875
1843
5446
4017
3585
9189
2932
10094
4069
14975
7626
834
3925
8421
8898
2290
8907
1043
7424
5667
4931
7798
2603
3843
1139
3560
13554
2181
9675
5004
12472
5175
886
6767
11199
5672
11598
10165
13382
14165
5866
11432
11624
4827
9242
6139
11052
4655
1180
12511
10950
11114
14376
11
1313
11807
7508
3334
456
4
10551
4089
3807
13882
10845
1421
9455
4351
9654
13765
2200
2539
14405
9378
9115
9327
3029
7019
7335
4306
10873
8877
11885
8625
6454
1852
251
8203
14390
7108
14595
14090
10083
5094
12131
3884
2134
4816
2279
9118
954
154
12822
10196
12088
12180
2017
8631
12502
4040
5403
12254
6323
11146
6809
9082
12074
11002
11955
561
6749
14883
6491
5330
2785
1060
11287
8339
11751
3159
851
5237
6990
158
6512
8361
99
1121
3512
2368
14941
661
4479
3327
9466
5628
10363
14024
5415
12399
9309
3561
5782
4454
11125
6657
6123
3543
4679
12659
3933
4041
9174
14820
8779
12430
11876
8417
11698
4355
11297
12418
13777
7345
14570
1775
14905
13078
558
13964
2346
411
9957
14387
4278
10244
9224
10840
11941
13154
7891
1907
13984
13001
7894
13831
3701
2691
11565
10710
3031
146
11121
8260
8165
3266
12259
8496
5300
11736
7933
8190
11442
7714
14598
1058
8586
3114
14469
2904
1910
13959
2916
9279
2473
13149
12981
2734
2120
11367
1451
6512
3640
6804
14063
10982
144
4406
14796
13332
12203
14533
4017
14818
5077
2180
9908
114
14546
7885
13561
5848
11752
1330
5396
3388
1643
11527
5407
7518
4117
2714
7569
1440
8997
4933
1135
13264
5216
11750
5665
3432
8859
12738
14057
10336
12639
6393
9778
1261
5431
2398
11706
4897
5478
6596
926
12221
12268
9087
10208
10339
99
3330
4525
6947
10260
4315
13526
2525
5088
941
4024
2831
14437
12783
5206
9907
12738
9177
10678
2871
5833
9288
8431
1138
6924
725
11337
12865
2140
8394
14076
5552
1443
5756
7602
4826
7551
4113
9740
12513
13278
3046
1127
10942
8594
3961
3396
14708
170
6307
13371
4441
1640
3233
862
5653
11300
11207
9635
12904
12573
3965
4793
1342
6987
2858
2870
1271
9949
3753
4378
4597
4426
6176
12084
810
658
13890
5096
419
7779
1686
6215
5388
13353
10425
8807
14005
6005
7540
13848
3074
6499
10334
11751
7794
9627
10833
2552
10907
4500
581
6763
3997
1964
2819
10092
7346
4558
7796
4884
5886
4040
2696
11868
11882
13104
3595
8281
10262
8504
14937
521
11598
7555
1187
14763
5503
13771
10518
6280
4474
1461
5244
10782
7189
3434
9024
3062
7765
7794
11063
868
13821
7690
4541
9993
10404
13951
8197
5870
11359
7408
1050
8671
12303
7811
828
3980
4135
8797
13818
5203
2397
4529
1795
2
7261
12757
7231
11162
13498
3791
12646
14350
4703
12422
11799
8953
6413
6327
6606
5041
5011
7167
2472
2894
12876
1479
1132
14577
4069
6972
4900
14959
9046
9353
13560
2025
965
6552
8006
5260
14784
5733
5682
6926
8317
4192
9867
8015
14732
11421
1092
9774
4449
4989
10253
8830
8458
14734
12871
9081
4466
9346
6510
3456
5336
6969
9214
6149
10666
1511
8376
12861
11827
7235
2004
11279
8297
11134
12714
10909
11504
6560
2196
12114
11211
1287
4185
14899
14302
2562
5493
5475
6393
10533
155
9075
3593
12553
7086
7236
8072
239
3166
12814
5603
8105
2866
6925
13996
11005
3968
11051
427
11537
6443
13586
4263
384
1619
14840
6804
682
6346
10391
2367
11628
9273
5650
11237
6627
11795
4369
8282
7656
4822
6099
6123
8322
3078
7684
6762
3296
13818
2058
14000
9562
5448
2028
3657
11305
2503
11529
2130
8984
4755
1600
14064
8327
4795
1392
2636
12506
10928
1771
4131
12435
9266
10899
6992
4172
1271
5520
7536
1811
11794
6407
585
5558
1821
7763
9524
10792
5002
10606
13707
5610
12588
113
5315
9307
12799
7551
14947
5289
4696
12473
6421
13418
12287
12180
12837
9145
8654
1661
14442
5522
12822
6412
7488
10548
6537
7723
14138
841
8339
7356
735
14460
242
9599
5307
1293
5449
13547
5475
6510
7111
4722
7822
6154
3934
13099
14090
10842
3902
11140
9571
2771
629
14351
13289
6499
3031
3851
10785
7055
151
5440
7641
11921
12009
6320
14118
8808
7058
10374
9099
8369
10065
11731
14294
6297
13937
9944
3575
2816
9487
11995
8868
9306
979
891
4295
7679
10301
4038
2676
9474
14673
1840
7074
10975
3399
1468
2886
3224
911
8921
11229
7648
4982
11532
4598
11242
1597
10861
14476
4797
7662
12483
4157
2705
2266
6187
7647
12466
6741
1258
5713
8737
14844
1681
730
14523
5384
3521
7875
4383
286
1057
7214
8133
10417
7302
4308
3048
1799
8608
171
4397
8381
3933
7790
3512
13880
6727
3601
3219
941
3289
5794
11192
10270
251
12335
6652
14062
11451
3672
8636
169
2204
7457
6327
12142
2725
6510
6164
14910
11112
13834
6232
14416
4076
5405
13398
460
6418
5461
4070
6749
131
3436
11382
11149
7936
9916
1006
11723
11961
11686
11339
2678
12085
10367
12560
12209
12806
11426
9864
1323
7613
14472
5467
6845
12070
10334
14958
14913
5394
5657
5305
12821
13981
10461
14465
9998
1276
8202
14712
8927
6098
10883
3312
12185
7515
13479
4970
2554
10306
4207
4519
9907
14490
3716
7790
6273
11469
8166
9528
8356
12552
10535
9090
11368
10915
12532
936
11343
4000
8330
10389
1347
9906
8335
12329
14643
3396
14546
11850
7002
4026
2224
13646
7056
8729
12098
2836
3430
5382
11320
8188
8283
12793
7683
13366
2945
14156
8665
12916
9271
3679
10715
10606
2196
11409
9882
6434
13668
14672
11203
7335
2318
4266
13479
8630
1707
10661
974
14033
13949
8586
8442
4221
2659
5528
14597
10114
433
6002
12173
6175
1394
327
3185
6078
1975
5161
6739
2872
12215
8035
4620
7031
9222
12665
2533
2925
9414
4178
1495
14844
12111
11338
2670
812
10259
10923
3820
4647
12507
363
8578
8171
12155
9643
7275
11716
9704
12152
3129
8342
14115
10600
2715
10419
2938
8164
10531
8760
10891
14829
769
4066
6226
4646
13333
6687
11386
4779
1376
11422
3916
7490
14874
5908
12119
3685
5352
7401
2533
1205
11418
359
7116
12826
9896
6229
14612
2343
11741
3895
4132
8907
10484
3343
13403
11187
4941
10993
12431
7307
12266
12336
10101
6748
14371
6769
2535
696
7304
5711
3324
1799
14747
11433
6365
856
1353
7061
14882
13917
10256
13430
7477
1825
265
10359
608
7256
4147
4572
7717
3408
14733
2454
11717
5629
10833
10665
5945
890
11094
11260
8572
13872
2661
13831
5364
3202
7339
9011
7255
6616
12647
12555
3790
13544
13005
11231
2997
3324
7500
5066
14192
10442
12022
4868
8019
2776
5661
712
994
1300
7942
13044
8387
6021
3745
11689
5325
1760
14043
10059
8638
5655
1259
14447
3045
5816
10900
10052
12052
2107
4143
11848
12499
9974
11500
13866
6539
3797
14450
2122
2820
200
6314
2921
12241
7731
9773
7236
7574
5691
5419
2893
11718
7676
4538
13528
1518
1912
8465
10173
6567
4816
13333
10776
14271
14955
3229
9302
10719
4054
8554
4209
7210
9525
12491
540
786
9916
4332
11307
11809
2173
1147
8537
2946
11726
6424
3457
10447
6190
10279
2548
332
6325
12865
8860
14893
11945
3387
5749
13358
10717
5465
11588
13705
12836
8549
10457
1468
14573
1974
4467
8393
12980
10525
7446
6385
10682
11318
4424
14744
12688
11189
5423
3229
6067
12421
4643
14941
8774
3673
6858
9394
13831
827
6444
12070
1378
10868
4641
1687
12249
10856
14477
5027
13414
12003
5347
2170
7810
7120
14680
684
13500
11740
6564
14026
4883
12160
1040
1605
3222
2042
10002
8606
10675
10159
4097
2701
6585
7023
12259
1737
10526
6891
8852
487
13620
2112
9575
6337
659
12290
14901
2663
4198
6559
5768
2572
6534
8848
11927
12811
587
913
7598
7651
13559
11252
10038
12864
10746
14769
14751
6855
12922
11887
10754
12662
3247
6075
6141
10752
14671
1550
3749
10896
2562
1489
2465
1155
3703
7242
7652
13276
6859
9228
6257
13411
2463
10273
11247
11369
7571
7841
6722
12484
6760
1709
1450
4226
3894
7330
9831
9394
1583
9055
8320
13759
6817
2689
8097
14838
14146
9416
7269
2785
12746
11994
11626
839
11616
10024
12590
12120
13960
6891
8189
4634
5981
8931
14122
14092
6054
6201
11521
2305
14537
3722
10208
12962
9711
8418
3096
14892
9847
3934
14753
7961
12823
7616
4988
5975
11398
8467
4469
2577
7139
5275
8533
6081
14386
13953
11300
8957
5228
14442
973
14810
1557
2036
7040
1471
1541
823
11606
5240
3305
8949
14407
13125
4950
6307
5074
14516
14685
8825
13416
2552
9005
5858
9858
11019
13325
7726
3077
9725
10093
8515
4395
4404
4106
12527
7575
7223
7618
12464
13328
7971
10348
61
6729
7777
2442
11218
12204
14082
9493
13480
13112
3507
4849
8269
72
9569
891
1325
9936
4417
317
1704
14527
2511
12138
10160
10793
12532
13609
1762
3111
14890
5552
5226
9036
6613
437
6125
11063
10491
5163
12477
11809
11628
7306
1172
9897
13862
2454
6704
4942
13003
7914
938
1881
12837
2650
9477
7564
8877
2296
13198
8667
8149
10684
11874
10985
6643
2971
11424
6326
11241
3707
1316
7056
3357
4133
13936
488
1342
6283
11758
7945
12255
9307
4001
10573
10571
9750
4594
255
5834
7308
7494
514
10849
8288
14525
14835
4391
11877
13641
12403
1527
3286
11303
997
9796
5217
3878
8596
6218
10436
588
3735
1448
5348
7368
1843
13687
257
5008
11462
8416
13668
11960
1535
5815
2791
4698
10704
13153
9248
10709
10598
9933
1859
2707
7910
9541
12506
3816
4315
9107
6806
47
14166
12681
13136
2532
12590
9189
10255
3182
5673
11012
6887
10899
9341
7789
202
14264
10501
1387
345
3797
1325
173
9362
8027
6237
307
7044
9796
6841
4824
914
2051
11698
12932
9701
1899
14629
1853
8238
4982
10571
2282
6821
8145
3644
4776
14352
8138
2326
2085
8505
14412
8230
2512
7178
6013
11468
8097
5495
7626
4316
2884
2319
6104
10022
3782
11518
9642
13466
8911
7657
4433
4692
3619
7599
13115
3995
5349
4259
838
8074
1375
11963
2559
8916
13701
10571
13822
6963
5631
12279
4938
8232
11142
3312
14078
5446
7461
10469
726
11325
6818
8103
10758
14318
12084
7826
11101
2519
1591
3533
2458
13060
3021
6289
6653
55
10183
1930
1410
9143
13743
134
9754
4367
11654
1742
2325
12498
4402
8995
2286
3619
8875
6382
4736
7705
7402
7344
13490
6517
6509
3363
8496
4242
6182
1123
5968
2619
8683
12964
10538
5626
2607
7379
5469
8303
13116
96
5890
13723
7706
12286
212
2716
1987
4184
2910
3477
13933
5241
3207
1087
8566
13522
3540
11556
7096
5046
14904
9438
8170
1723
104
1660
4461
9059
9817
0
14634
3698
9141
5188
10666
13159
6119
710
1248
5227
8580
438
14231
6483
12691
8073
1176
4091
3398
2340
6972
335
9236
5921
11177
49
7981
8121
91
13256
3850
11892
5974
6715
7524
9779
4562
13422
12972
13848
7671
395
14577
4509
13482
3714
13995
5025
878
5536
10006
11246
10365
2251
9667
6146
4447
8390
6221
5244
1310
4318
9814
3091
12190
11228
1648
541
11648
3982
1666
14554
7761
12426
3970
12574
9153
9735
434
14029
10876
7109
3805
5958
3206
252
5964
13073
12039
12510
10320
2372
8287
2794
6098
7598
10213
2140
7555
10930
10867
12917
6679
2161
13701
9088
11410
14017
7970
4665
10438
5048
14325
2055
11938
13716
9831
13254
1759
39
10644
5039
5282
7028
2273
7711
9515
9125
8836
14653
13843
2136
3681
8274
4718
600
9880
14845
12480
1074
11564
12703
5319
607
2005
10166
6850
10697
7703
13774
14041
2538
3908
2520
6726
982
6228
8089
8182
400
1167
9544
4888
1677
9264
878
11951
7882
10611
11578
9184
9393
517
12678
12377
9994
3675
5649
14733
8272
1058
8182
1253
9698
530
13684
10356
11080
1325
11316
11814
7131
7422
4062
15
5695
10213
6305
5216
8545
585
10259
6389
10530
10012
575
6823
1270
2330
7770
5439
13016
7314
3783
595
14505
8244
265
1469
2112
1847
6243
4995
14887
2736
12087
12221
5475
7146
9387
4357
14365
40
13725
14484
10488
5942
13970
13554
11907
175
9418
111
645
8389
11508
9999
7820
1169
49
6276
14471
13518
4624
1883
6210
9344
13911
9796
5132
6354
10442
1410
561
6270
5325
6439
10255
4591
11378
1850
3621
13990
12387
848
3219
12249
7493
12162
2038
9527
479
5788
3843
2657
14314
12984
9100
1709
4328
622
7607
13783
2466
10087
9218
9193
4738
6576
2964
7766
979
8760
4850
14161
5580
13169
756
3377
8215
8359
8138
5663
5963
12020
5595
3798
3276
12289
222
7016
14269
6760
12253
8076
52
13995
11217
13840
1131
10780
6919
524
2378
4522
8492
12701
6404
5849
3079
1013
989
11842
14331
10567
8710
4787
10801
13113
3879
14450
12527
12220
11301
8242
9247
6000
13790
3202
6949
418
13492
11868
9805
5827
10592
3636
10732
12315
10662
2157
7645
9754
13605
9942
11555
4551
10875
6725
478
1852
14468
12877
10054
13340
663
1187
14118
2916
13419
1001
12432
11795
9857
3457
6818
5309
13172
7477
14636
8550
8087
999
540
961
10787
7255
642
9499
2615
11519
14340
5534
10736
13370
10181
3360
5653
11606
11072
9569
5913
12540
8778
2478
7576
13975
1377
5992
11510
11575
8854
2498
14336
7829
10516
11044
8241
3583
2317
3801
2032
9781
11844
668
6423
5148
3546
11390
7060
14979
9461
5972
10344
5704
2082
6591
7622
3606
5801
7544
4793
13376
2070
14457
11737
8094
14634
3484
9110
8449
7315
12300
8475
2656
5309
7723
4224
10936
3873
8878
3444
3592
10525
5136
11185
2239
7075
6354
8877
10966
642
6052
5187
4750
3051
9281
3869
7894
1454
7336
9475
6357
877
11950
1748
6104
8201
11142
7576
2892
12032
12655
13482
5632
11790
5854
6365
13241
14290
2004
9915
172
9813
4814
8047
11454
8989
5658
3977
2682
1909
11361
7746
6576
1395
12491
2237
2817
10551
111
12660
13172
4008
12985
7603
13990
12228
10835
2281
10860
5432
6266
9352
1168
3541
1657
1476
14794
420
8041
4192
13656
10655
11670
6140
7276
13344
12352
2816
11471
6602
7851
1283
6308
4521
7457
3747
12404
8594
7893
13064
4817
12278
2209
13132
14380
12529
12765
7376
7798
8381
4481
12602
4246
11595
3619
1034
4592
4445
12506
1277
6961
13451
2144
7416
8196
13631
11368
1915
7224
9995
1500
6315
679
10802
243
8897
9679
10430
989
14317
8579
2228
7208
11120
3729
12410
4506
12873
3586
10076
8597
11021
12558
14030
11445
13701
11903
5961
6477
9811
2572
11164
6897
5556
14998
9328
4420
7790
4206
1635
767
13940
665
1174
11058
640
1992
793
11171
12989
13646
4933
7572
9221
2001
11587
13206
14089
3594
6454
2244
13748
10133
14466
6035
3162
10085
5859
1872
8339
13919
7211
450
8120
6103
10428
11631
3137
7896
3130
5367
7996
5203
9406
13980
10314
542
14410
3194
1852
2347
1177
7893
4750
4810
13556
1585
12556
736
1960
5665
10804
4067
8270
7723
9244
14451
11620
13834
7433
768
5878
2977
11522
8029
5743
7822
4907
9949
7611
12194
10355
3432
663
5566
1312
7475
4376
13831
9813
5584
1885
9146
1565
2356
12503
3017
14200
14064
5781
13594
7904
10081
2499
10089
2104
12233
12951
8632
5076
3361
3692
10574
6670
3103
6899
7671
5380
1193
11668
14069
11083
5884
1130
5257
2964
12078
9040
3954
3462
11808
1670
8564
11945
6118
1457
12836
14832
10346
8360
2988
5001
7226
7626
743
6396
2355
5714
4898
10078
9464
13456
10908
11402
4437
12848
4411
13765
2364
12050
4263
921
8497
601
3391
8300
1957
6322
4184
3735
3675
13100
14322
1028
539
2679
6569
9839
7600
6934
13434
9997
11878
7950
12074
14310
2434
13123
14769
5474
10960
7668
4299
8817
3844
1609
11524
10155
11920
13983
6365
4885
2196
1609
3699
10667
9117
13302
3048
5460
4401
8350
14818
10858
10965
6452
4619
11383
14458
14595
9531
2322
6150
6134
10959
5379
5563
14177
5101
11140
3718
4407
3371
14185
3221
2104
8308
14793
12745
4816
7056
9617
7552
7964
8517
13206
5309
1214
3663
10529
3875
8529
1727
5623
3591
10788
5257
10119
7003
5737
311
4036
13717
7518
8525
6511
9591
7075
3956
7470
4826
4028
6292
7572
4310
8657
6071
12939
8859
12255
2491
9770
5900
11638
14030
2277
11892
5223
1272
3793
12464
4769
10929
13964
1857
10136
8663
8914
9679
12268
1826
14965
881
4754
3313
2357
8876
4967
10589
2923
14126
3635
5692
9207
2593
8391
14433
14638
7599
3855
11275
8472
2513
3169
4762
2213
11111
14066
2330
12195
12899
5134
8173
2295
14631
5250
3263
14837
7081
4364
3221
8402
8953
14189
6190
10034
5451
12092
12542
10005
10409
1637
174
13434
7981
14220
751
10550
13713
637
1646
8105
2519
3804
8780
2003
3834
482
12184
8163
13806
9223
5962
2998
10208
3767
2297
8218
6498
8420
11796
10571
11723
3166
13204
10505
980
6307
534
6237
7821
6555
9153
3380
3487
13570
8404
9977
6741
9400
7538
5406
6084
12641
11522
8525
14077
8379
4133
8163
4423
2238
9193
9406
12032
10447
8900
7278
611
6754
14664
2949
7046
8574
3340
10362
8049
9293
6443
10535
5846
13
10306
10110
9030
11522
8450
13900
9759
11323
4586
8673
3722
5883
14960
10407
2628
48
1309
12317
13640
5899
2243
13462
12839
8999
3663
11503
13432
10409
11627
13981
192
457
8797
9
5315
13570
6371
4339
14764
13798
12671
1769
9956
12202
11283
7319
1064
8921
9043
1181
6893
14322
7266
10694
13283
1081
10710
5475
13229
6287
9884
11450
14017
2853
14528
10646
7554
8941
8927
7136
8110
4946
7898
14373
2932
12590
10419
13203
11514
14602
3971
1993
13664
245
813
4054
10733
3665
8892
596
5919
13767
1238
14267
13921
7668
14817
4686
12761
9322
13383
1798
7104
11370
5987
11862
11003
763
952
12492
9865
12105
7342
14766
3792
5650
6527
4628
856
2298
10274
12393
3076
3987
1438
32
1907
7918
12936
13106
5121
1746
3939
1689
8079
11174
7221
14907
10329
7516
816
11947
3710
9152
8975
2811
11194
9528
9892
2147
8550
10496
10922
6521
10699
5910
10564
1250
1942
13305
8504
1583
930
3289
5134
13563
13668
12300
3026
12767
266
11777
7558
11239
13059
7592
13471
5386
727
349
1274
6858
3204
2058
4375
749
9242
4618
5876
7729
14828
12219
4452
5812
9289
2951
5021
1135
510
1060
13727
845
11675
9055
10858
11453
4466
2733
4915
3460
869
1732
7379
3592
4389
8045
9196
3351
14237
12370
8123
3907
13665
4168
4644
12917
5466
14013
12956
2947
13084
13400
588
13653
3384
12252
14179
6661
887
3803
8589
13703
4250
14696
9802
9829
6867
1201
9542
6545
12160
13869
4133
7079
11145
14593
2651
2859
11089
3497
6569
6389
7887
2826
10920
7091
9051
13867
2852
11941
12897
13796
5272
14035
8096
10747
9142
6862
5539
13642
6949
12344
6400
10262
2369
4477
7840
14107
6685
2998
11905
4643
8931
10941
2763
7143
11562
7639
5698
4513
4163
11514
7681
10015
10918
3460
13349
10483
11626
1023
5709
13963
8004
6953
4383
4980
9213
13235
10358
3083
14614
10996
11403
503
12364
13560
5599
13239
1908
7819
1655
8396
2388
8242
12930
7968
1049
12482
2880
2043
9312
1540
12787
4079
14298
14071
4873
6663
728
2796
573
12724
5212
13997
8550
8013
1452
12373
6674
8305
12780
6102
14143
517
2892
7757
6928
5938
3970
9271
3302
5564
846
817
7796
7541
6789
5748
14457
493
9187
6112
10634
2438
2454
13115
9346
6214
1728
13916
8841
4029
8346
4580
8785
13459
105
8050
4547
9955
13125
353
8314
6018
11208
13984
6341
12005
10891
12638
10116
10132
9578
3293
12559
5199
5548
10184
7986
7411
6974
10231
858
6226
954
1063
14267
12285
1122
3603
14504
1916
14416
6155
9761
5490
10120
863
14857
7768
3999
14844
2540
10028
14322
2153
2132
1736
8485
10876
14870
14040
1298
5015
9619
14995
13928
11496
4903
3541
1623
12442
14984
3093
2102
7530
147
14413
13382
4088
7850
14401
8752
6088
1998
1864
10014
5064
4871
13208
14919
13446
10693
1904
12294
11084
10458
6208
14799
1218
2364
11955
13963
7327
12506
5307
8099
10597
4898
12735
9838
13746
387
8431
689
1517
6011
5306
13359
3768
2818
163
14448
4502
4931
10698
6422
4929
3885
9681
9560
8601
3844
12624
4566
5847
11192
11988
9928
2149
13548
7424
7828
3651
4105
692
13205
6852
14512
11977
14631
6571
10388
8017
10790
6301
9835
8829
6056
3089
9911
12025
7756
10059
14789
12466
3974
7104
7735
5927
2083
12793
13697
2602
10787
11124
6416
3167
14848
7653
5822
6701
7856
11353
13505
12344
8399
8114
10852
14551
7193
6087
4291
12251
9157
315
7165
11673
3738
11814
13830
1827
8506
10172
13908
861
12257
11913
9311
10491
12934
12890
12648
14920
1481
6536
7368
12147
13358
10114
1595
6406
13823
4696
14325
6575
10788
1169
13285
12365
14406
7031
1758
4153
3953
985
5841
4253
7586
5598
3814
2008
3524
7709
9393
971
10759
6407
7441
7395
2793
13783
2192
14468
2065
1785
5107
8415
8004
1991
14580
9792
12408
5276
11940
6751
13535
13504
3846
14000
9050
12692
5015
6950
14678
11420
8913
7971
13651
10855
6110
4184
13073
14921
6693
14433
11296
9948
12863
9647
917
14626
4546
744
3527
5245
3647
8171
2131
14448
10283
4313
4142
1640
4800
13597
9104
10250
10178
11576
7468
3891
8059
4015
2025
6621
3369
7914
6673
281
12679
10006
10357
7149
1565
6962
7237
2990
706
14418
4923
9808
11807
10501
6302
7623
1642
5736
3044
11295
4883
12888
3949
4716
12789
1759
12880
14853
546
4684
5128
10876
364
14797
4263
14993
10385
7798
5650
2645
14310
5274
13869
2574
7381
13643
5283
5165
10056
3448
8650
6656
7841
667
638
9029
14381
11754
4776
6048
3847
13587
6211
8517
7642
13200
4528
828
5050
8877
10305
2114
2362
3136
14805
14400
6757
1025
7999
1577
9159
4697
5451
2458
991
14229
10714
1324
9385
14064
13035
11239
13482
11362
4422
2056
12536
14895
11799
1991
13436
5490
14148
8312
11438
2879
11389
11634
185
14713
10483
1751
4422
14375
14926
13389
13565
151
12555
7446
5973
3382
11885
1702
4425
7208
13935
14000
7102
3833
6221
5516
12741
7476
5267
11381
11737
6193
14762
14315
5565
379
14330
4181
6397
11522
8166
132
9887
9693
293
2213
10719
4083
11056
5743
1143
13209
12278
1784
10771
14263
5167
2264
601
1879
3789
3471
5152
77
3559
1074
9366
11654
5254
12450
7794
558
13532
6935
12439
12943
13133
12227
4102
6915
5326
12902
704
5474
4355
14262
13079
4886
1407
5230
116
9547
2161
4924
3881
1195
4573
1440
1958
9885
6615
4410
3932
2667
5023
6485
11394
7711
13096
14244
12664
6863
14323
260
2977
12732
13528
12364
8074
12404
8186
287
10567
2041
9990
9617
11640
12907
5808
14047
10232
9843
1109
11263
9577
8716
8106
7873
11557
10736
11062
10770
1436
5189
12404
9308
13643
4550
2967
14481
10499
8024
7363
3255
1974
4469
14312
14681
14862
2672
5180
2812
616
2802
7372
14405
13649
8811
3216
12520
7665
3029
9263
8693
3437
13
11750
5794
14369
10046
8572
11032
10194
13440
8396
6859
1420
13126
2373
3795
2563
658
13598
8461
3893
8171
9731
12180
6802
14383
14261
3026
1669
14041
12546
8649
6479
9192
8985
13671
13756
4757
5188
10216
9831
7316
12843
6962
1143
6593
3375
7987
12667
10688
10710
6035
5403
14896
7461
13330
4412
3447
11765
14584
8880
5523
10051
1939
2059
8205
2617
550
7415
2905
2344
502
7775
7632
8809
3778
1444
3554
7793
2943
11493
13366
7509
13742
12555
3461
11131
1908
11863
11851
14049
14785
6502
14215
6707
10647
3520
5353
904
9210
11920
4887
5342
1752
13844
1593
10341
11773
11341
9209
5508
7768
10211
2126
14636
5815
7221
7159
8932
8894
8843
12191
4034
2975
13650
10621
7196
12339
11863
4906
9059
9637
276
10224
10858
132
10692
1469
6265
12094
5513
298
14630
12383
12493
10399
14500
5164
927
14456
117
8708
1850
13731
14080
6528
14661
10217
13095
439
262
13623
1468
11623
12832
89
6340
6095
13516
873
12011
1719
13590
9221
3630
5303
9523
8651
3610
5117
3470
1615
11437
8993
2754
5556
10954
11161
9461
5256
12569
3694
11241
12693
2112
4875
4188
10877
981
5728
7004
9517
2359
6533
8092
2335
3111
14988
8845
10174
7250
1348
7259
13948
14703
9304
558
8102
10806
13180
14688
3920
10292
13842
14089
2550
7607
6713
1554
8397
958
10089
1030
14949
6184
5700
8338
8824
5389
2699
9990
7658
14853
463
1651
5771
12285
7987
11198
8504
6323
10687
13335
9098
11312
10822
12898
10649
6414
14747
14600
10009
2239
10954
11053
11226
9581
14487
2915
1203
4282
12382
412
12516
10177
310
5480
10547
5274
10508
13070
3814
4867
2368
243
9080
11699
14226
1406
11050
6643
7148
1727
3447
1188
607
13388
13086
3041
8781
10653
10419
7150
12466
13783
14012
10223
13342
8083
12189
8107
6540
6097
5025
1260
7617
11036
4283
1167
7774
10335
15000
7566
9452
4915
9560
6749
11899
11603
4506
2495
2164
2708
2658
7126
342
555
12625
1481
14255
4026
10568
9307
882
2505
14437
13101
2769
4918
13936
7416
9051
9160
14795
13179
4848
883
2240
831
5457
5234
2371
6383
11647
14545
97
13677
156
2374
14274
8370
2226
14283
12197
7695
9205
8103
6377
5736
12197
14947
11317
14960
213
6359
3723
14537
10115
6901
302
363
696
2729
2373
14615
14395
7631
14519
2776
7288
2266
14677
970
6368
14703
9549
7754
3105
4861
777
4684
11495
4133
6908
13231
1017
11474
5192
2591
13479
10382
2037
5583
1849
14686
2166
14051
12719
948
5261
13438
2708
3193
1140
4049
10782
4384
12678
3907
496
1943
11980
2288
14548
2047
14128
12623
1827
5805
11944
10298
2618
647
6635
13349
11891
4739
1676
12362
2995
9268
8573
12877
10421
8857
2015
2839
1835
768
1356
10008
11369
1003
5078
6837
3172
9217
13953
10283
13858
5343
5532
4720
5098
5967
4434
12348
5990
9361
4665
5436
8349
9760
3348
497
8871
5901
9974
8548
7594
777
3057
4223
2724
9012
5353
10832
14585
1048
9172
9916
4979
11826
10309
14970
5493
9731
1410
4719
11799
9732
9509
10149
13296
5791
14653
12558
5933
1319
8537
6200
8404
10066
13476
13071
12019
275
2791
7772
2091
13565
4497
9786
14721
10061
14720
9081
13887
1971
11519
6622
10325
2034
7133
1658
8133
10107
7737
9086
3775
13304
5939
2693
3640
7832
1847
14445
7796
13534
6245
4092
12461
1114
3764
13736
3359
5338
3581
6707
10558
3963
886
708
6595
13837
7752
3109
10290
5209
7294
4532
13927
13774
13150
4171
8141
6297
9877
13239
10715
4218
5550
4109
14556
13442
4053
8441
698
12179
7681
13804
10576
4651
6667
4020
10910
4377
2712
6839
1411
3120
7207
2211
14612
3860
8815
3589
10784
2708
8883
10968
4316
10325
1895
4143
10207
10222
5428
14100
6399
572
9837
14101
5562
13250
4883
8854
5938
8996
12680
4461
4918
9798
53
1340
12876
11071
14352
1133
12259
13470
1065
11996
11755
14431
5649
9076
12265
12419
11943
5934
7527
11648
329
5106
8392
85
11932
937
7861
7364
13891
10006
3818
13443
7089
9505
5937
11365
9395
4343
11951
11373
8578
14250
13167
2265
2363
8655
14472
7164
6453
13643
2173
10262
11758
7798
8514
12624
1488
7699
10317
1439
10246
12924
1448
6559
4962
10179
5286
8992
12479
2553
9098
7909
11136
7533
11054
11050
3276
7712
401
12418
13097
7567
5289
10552
3741
7463
12242
11284
6128
3284
1491
10749
8555
628
10501
10273
13974
14119
13625
13194
6015
11543
5444
8672
11435
338
11807
4782
2527
14646
10863
14659
545
2884
3045
10942
10094
7176
10651
5369
2381
9153
3443
14774
12980
1878
4491
9439
10035
884
11914
11120
9529
1010
1745
4914
3626
6794
6208
6350
7305
12768
276
4383
541
11017
9411
14003
346
373
1944
9846
13459
4943
5547
1756
6243
763
9471
6086
1118
5727
11405
10721
11208
12278
10289
10574
9098
6054
13630
13564
4215
6453
8988
7096
87
2011
6347
12400
5208
3682
14458
2238
12375
4428
3787
8130
11997
8013
8190
4049
12000
9043
3648
9771
6652
10284
3720
8071
13831
12313
6684
6011
8672
3685
12662
2602
13992
9214
6612
5597
3358
740
5606
4306
7334
2728
1543
288
9937
5355
12040
4979
11934
13251
14574
5358
11504
14324
1360
4494
5534
7823
7022
6343
11403
5301
3022
858
8035
9350
13228
8718
5776
4300
4425
10885
5468
12628
8276
12043
3644
14751
6430
8572
7096
13723
14509
14099
3734
8097
14867
8117
2354
5001
12658
5414
6993
13236
13710
8083
43
5382
9097
7080
14762
10875
5143
11549
11781
4597
11751
7868
8543
13138
6411
12616
9568
7119
6281
5197
4821
11931
6453
11781
14879
51
5942
4792
6602
1950
3468
2883
1487
13390
648
2473
8610
3099
14819
14346
4069
8481
14072
14379
2256
11135
11292
288
12972
12803
13278
4304
13114
949
1307
5534
14718
10175
8971
11162
14677
3786
11983
9185
14048
3614
6325
8064
13926
7672
8423
9410
8466
13874
6815
7595
12458
14156
416
802
7192
11661
10011
3260
5520
11250
11655
2298
1872
6745
3242
13104
4344
3063
10024
12218
12764
27
1945
535
9578
7974
14126
8663
2918
3151
9982
10894
4090
11491
1538
7219
12278
4474
1740
3998
12936
9640
9040
9661
5655
166
5198
3198
8782
2633
10188
6716
6533
8671
4941
12415
4359
12340
4467
13833
5396
8685
8495
4814
13259
5917
8794
6205
6362
3191
4067
9967
7525
11377
12186
197
1433
9641
4530
6120
13794
8607
59
2268
6256
7379
5548
8513
12191
11945
12661
11131
7483
2214
10041
7472
2292
5621
3771
5387
2840
1827
7555
5647
4640
13366
8152
2510
14454
5599
14855
6482
10385
6549
4416
1783
10820
12872
12762
12722
115
4821
1899
2699
4677
454
14985
8382
1564
7709
4202
4187
10005
7649
7826
3102
2658
21
9492
1201
12368
6053
670
3159
2970
1913
4766
7683
3765
1707
3329
11794
8281
7609
9230
5206
4607
9744
2125
11908
13055
14613
8710
9235
3466
1572
1257
145
14511
13445
2728
12643
4991
7675
5704
5903
7662
11865
8098
1704
1729
67
2465
4475
249
7290
13411
5773
12449
14069
10951
13544
994
4457
8763
7768
6028
2370
8026
7992
3518
7824
14876
3621
13668
12746
11969
9914
9639
13389
9355
2339
7089
7487
8095
735
3804
14749
11437
9491
10249
3013
9820
6888
10411
5872
7590
113
14859
9933
8884
3570
13461
6177
14246
2258
7873
759
11756
1721
1567
9265
580
11545
10416
5812
14853
7747
3497
297
6914
13281
3934
10145
13099
14437
14711
5304
317
4173
7597
10037
3700
13285
5006
257
4291
13922
7483
2543
4369
3507
2750
5329
430
3928
3609
9147
1117
9488
11805
6011
8167
9863
295
10840
12756
542
14608
8685
654
1453
7220
14566
13736
12497
9811
343
11730
1805
7691
3442
11770
219
6624
13625
758
8314
12836
1581
3761
7106
13975
4546
9761
8565
11575
446
8408
241
12656
3213
4217
5592
8964
696
7232
7362
4504
8180
10252
2490
4678
10997
6914
8652
6606
13825
11032
9735
9124
9334
5928
7906
3467
11241
6125
11733
2074
13538
7243
14180
14608
3921
359
7010
3877
11193
11703
2470
14319
5805
11458
14785
11877
5295
8544
11361
7826
526
14419
5777
13833
191
13094
102
10105
13762
13179
9452
13358
880
10021
11457
11871
2308
2287
971
10988
1449
13052
841
8154
2515
892
14940
9531
1679
11708
8449
6066
2350
7676
11956
12201
6390
6593
14144
7810
10942
3545
1926
7454
5029
1365
14068
7767
6402
12076
10292
9126
1828
14833
1110
10746
6737
9823
13663
8781
5232
12673
6732
4222
7897
1153
2834
11840
13791
8460
14886
10078
226
1238
11146
5700
12163
13683
4740
5452
6741
4945
8992
3270
14696
13444
3228
7261
11037
3594
10090
2087
3099
4579
4804
14906
960
10642
8727
3244
3932
8726
2793
1498
12337
11488
1685
8049
14517
2825
5397
13083
13865
7542
8550
14155
8138
1899
14781
560
9000
8278
9925
9725
3026
5027
7449
10078
722
5885
130
5259
11483
6987
7463
12013
11433
7996
14324
12523
2575
7396
11474
11144
6234
6385
13137
9851
7580
12496
11243
14826
8295
13313
11604
2044
799
12342
4967
6827
8079
7329
2228
8113
7016
44
3220
9278
1597
11316
13792
10621
3848
11334
4886
8080
67
7365
2941
2593
10400
1155
8490
12844
14603
4977
8187
6830
8400
6822
14806
10669
969
1101
8687
4871
9620
686
1530
12687
14302
9743
9829
7390
6903
3104
2365
2022
6743
14905
14424
9120
7532
14116
3666
10713
1172
11443
9160
3399
14512
168
6702
1534
9940
740
12415
12424
973
13117
5489
8543
4654
6239
13847
14489
6477
8175
3429
14844
14983
13661
1777
14713
6599
4748
13309
2685
8829
3486
14030
13354
3281
13332
3009
7219
11063
5111
9213
10954
1147
11013
11546
9421
3634
11406
10458
13816
5909
2093
3224
14840
3712
4887
12208
7794
3921
2784
6883
8923
9552
9400
5333
8574
9445
7629
13593
9019
14669
11604
367
9928
4882
9191
14438
12558
11647
10022
5103
10702
12038
7368
11978
6173
13152
335
4955
4207
9186
9178
2495
10355
6991
8602
1394
7253
9666
3214
5987
3921
13481
993
1556
6501
2128
11500
4778
3076
12569
14537
2451
11174
11020
9944
1854
3986
10027
7864
12166
8536
12865
6815
9561
2516
2108
4775
5053
9793
14251
819
5958
10876
12958
6613
14814
3052
9572
1677
840
9696
4531
8276
8019
2730
68
970
9932
10300
11661
9992
7448
7146
14895
7919
12680
13459
1235
1875
14598
2748
7612
9936
935
6645
8581
6657
11231
13535
8375
13054
7085
13707
11272
14451
9009
5738
1583
2673
6049
12050
14516
5240
7341
6717
11093
8294
1391
1125
11737
14591
4198
4513
2563
9626
3364
12303
12884
5798
10725
4540
12410
2198
739
12973
4238
5945
9356
9328
5816
9996
5776
13354
9236
11916
1443
12035
1753
11212
6718
13330
4587
12173
12525
8647
2366
8389
10861
9221
1894
11989
5583
9104
12224
356
780
10765
5676
12967
12023
10862
10777
3411
9251
8036
13102
3122
14403
4761
12561
678
7029
5640
11595
13750
6846
11479
13668
10102
2840
3246
825
11501
13534
8249
2033
5867
6849
14039
7543
3349
12960
8502
752
939
709
4818
9956
11272
5653
11964
4155
11883
6182
5469
12508
2434
1388
6212
2597
2050
3874
8866
13680
2192
2621
12825
6387
4378
2130
2532
13383
14814
13871
13751
4104
1821
3794
11211
9104
293
9946
9145
3540
6441
5575
962
276
12551
590
7948
2318
9
11632
76
4073
10007
8561
7017
8867
13570
7145
6402
2005
1863
4599
14140
4614
10471
3548
2700
2098
12837
9661
6470
5105
5879
3397
6661
3174
14503
14658
3146
14248
13869
9990
7720
2030
14689
1933
2147
14486
6567
3981
10585
11173
10121
6857
394
7594
35
7791
7517
1115
5250
14942
12041
4975
1395
8284
5935
12119
11866
4030
6000
3670
2428
664
5007
8465
5770
3917
8213
13625
3474
11523
10238
11536
5786
1020
6212
13631
242
10096
5793
11614
11416
2992
10413
10063
872
2210
9195
1820
12595
4093
8263
1066
10140
7634
11055
11122
12701
5725
13662
4664
12584
8005
11432
2138
1067
1804
12593
2032
7815
1165
10707
11088
1969
12836
5536
5847
3646
8290
4380
8118
4912
10862
6482
13341
6538
13529
1054
7226
7302
9190
4394
12586
9621
136
7337
4610
229
529
7652
3373
264
2796
4087
6701
13861
10198
12061
420
7528
4778
9206
9707
11410
2385
10713
13701
11639
6263
1020
3088
3385
9008
1564
9875
1251
14051
14759
6469
1105
14715
7636
9364
206
13275
9503
14421
10221
3270
9007
13238
622
533
12730
6967
6199
8107
14081
5050
3
14693
5143
5409
2139
5644
7050
1341
8597
10301
12143
13604
14215
2781
13320
9199
6500
4859
7758
10058
1700
13690
8279
6613
3852
7095
7125
6244
8870
12463
886
2934
14303
12051
8139
4544
184
4894
11747
11736
13538
5668
3340
8342
365
5106
3607
12248
982
169
941
12805
11005
13379
6124
13482
6798
1810
9835
5733
11503
9957
6034
2484
0
10295
361
10452
3961
3105
1032
11789
9443
11066
5467
14733
5861
2638
9588
11319
3999
6144
12327
4195
10446
4076
10324
1834
720
532
2827
11248
11433
3905
5957
7551
13064
2805
10785
2157
5224
4540
10022
2049
10763
13719
14483
9411
8165
12437
3251
13165
9556
6979
8349
8575
3671
759
3458
7471
6459
373
3368
3676
10087
1246
6946
7182
11828
6028
4801
7852
9355
9419
7065
3669
1058
1916
3811
2138
1709
11195
4620
10068
1213
14576
10932
13926
3455
8734
3780
4903
6964
561
12800
14272
11101
14958
10941
9869
11798
14393
8893
10476
4368
14657
10963
14937
8337
14118
2722
3975
5632
3702
581
14221
12128
12458
11904
3283
5621
11093
12734
2061
10693
3764
5859
634
1973
1052
14717
12115
14693
6211
3080
9017
2157
10616
6918
7297
12847
10547
11276
2094
11665
4877
5170
4179
6896
14740
5717
10454
11490
5912
96
5210
3664
14117
6521
9073
8521
12708
7026
6802
3382
12372
8275
13734
6420
10233
14326
8601
11183
5704
12003
1239
2960
10098
9997
13544
9426
5056
14320
335
8599
10784
3204
1105
397
3174
11839
5597
14346
5923
13147
3351
9090
13471
1410
14150
1438
2587
6651
14854
1387
10823
13145
12331
4058
6224
2107
6787
3193
4049
6821
11080
6817
14535
8817
3863
475
9544
12397
7298
9168
9369
426
14651
6945
4242
8997
5887
9900
1317
10203
4186
9275
11260
8626
2696
6788
6345
1579
3291
2026
6249
10742
5779
3233
13346
5622
11129
14499
7996
2151
2380
12093
9211
2616
5355
2831
2985
3869
349
2650
12
7527
4833
1816
8830
86
1985
341
1757
5979
5996
14756
10109
9594
11073
12523
8060
839
13883
9670
5196
7422
2121
13252
13685
5376
4920
5624
6242
3471
4229
12488
8932
6673
10323
6258
8089
7686
8646
1716
139
41
10307
1371
9389
13126
14216
13042
14344
2404
2113
258
7967
12327
6896
4957
3565
14412
3960
14660
9951
6249
805
11846
8777
6550
10147
13758
8056
10434
679
4415
9480
3279
14084
7071
5655
11280
9113
5877
3050
2366
12567
11227
8644
10819
11682
11656
11965
2822
13872
12588
2889
8110
1143
7561
8659
5693
12729
13267
1821
11762
9350
7936
2213
7243
2401
341
6715
6368
11311
680
1463
4313
3912
8703
8957
1650
118
370
517
6162
10359
14536
11607
5022
7571
4033
3671
13607
9778
2954
4205
2166
6747
8058
10523
6769
9867
13370
5099
4470
14904
13386
4755
9473
1451
3610
20
3455
9534
9040
7278
12112
2594
7073
1075
3627
6489
7897
14756
14027
4983
821
3218
1607
8278
4468
12014
13349
5246
13533
1004
12508
3478
2774
7244
14381
7280
14686
10846
11287
2072
8795
4195
9931
12844
1516
2905
2997
4036
14692
6545
7743
12621
12444
11121
437
3525
9026
1886
12476
5125
3690
5779
5593
13384
13420
5927
9765
1950
13107
6977
4756
3247
1581
4174
3445
14264
4584
10754
10961
1078
11961
6027
6346
5419
1340
12231
11082
13009
62
551
6640
9389
2579
1346
7525
5140
8385
371
11893
12578
7069
11098
3596
4067
11812
13695
12904
9573
4781
13289
4028
485
8372
5728
14554
6929
13451
8873
296
2826
2712
5298
3785
1225
13016
10733
6064
3566
3472
3226
1211
12033
9367
11303
8359
5668
1308
2144
13832
2493
4739
5344
14849
7828
14828
9701
10430
1100
14310
7583
10130
12247
14721
2310
14429
9934
8160
8480
12833
10138
4570
11696
11969
9991
3540
14362
4029
11452
7786
12047
1217
7518
12243
144
6368
9773
951
3
1229
872
2793
1409
8473
12544
2457
10778
13197
10300
9603
684
14056
7019
4597
2669
13062
2607
4494
10599
13283
9266
13100
7142
1761
1380
2202
5705
13441
1472
3237
5
8047
8480
3056
9523
14382
13452
5272
7846
9093
6752
14578
7377
10843
5792
4608
12243
14869
10525
4567
7275
3145
8063
609
795
4904
9006
1333
1321
9673
7631
3975
12207
14189
755
3035
9887
6351
9795
11048
3197
8137
13590
6884
101
6387
1453
10391
1365
6892
5508
797
1134
6302
4113
1237
12747
5442
2549
9283
14221
13680
7002
9305
9833
8349
164
10660
5716
8963
2141
9186
11931
9736
10970
6520
13806
9169
7509
2331
9478
6315
11470
10425
8880
5807
13244
13157
2249
8939
10417
14908
1291
8115
10638
11163
10991
13880
6328
9651
10072
6997
12787
13730
11585
13456
8447
9017
5900
14558
5924
6669
7724
14327
9057
11687
4843
5421
9524
14191
10953
14698
4450
7611
8527
6646
12090
3276
47
8023
13280
6972
1704
13328
13218
7933
8936
1497
1896
12413
7653
14960
12108
1085
12122
14997
13627
5887
4122
9919
549
13323
4793
9003
2989
225
4972
13614
8253
1038
652
13643
6712
7404
13465
3868
3798
10443
12979
7558
857
2044
7269
3851
11227
10206
11873
9802
14825
10653
11362
14944
5728
426
4559
7476
7195
486
6423
9175
5770
7983
907
2957
1476
3787
5567
8272
12560
472
12696
7454
8760
13388
6779
9348
1192
11831
11083
3215
46
4061
9018
10371
14527
7637
8419
726
4717
5103
9629
4683
11519
1631
1171
4269
2510
4313
6910
9649
7192
8594
14439
4086
7685
2720
5119
2147
6815
12673
2669
5015
5976
13395
4781
7226
8293
11890
2222
1993
4074
8326
4268
7476
8162
3397
12610
9134
2072
7602
1658
12082
14089
12927
6649
9660
5914
1396
4035
10552
711
10305
590
2589
14001
2305
1444
5570
2121
9601
2252
6191
12953
14187
7392
7948
14360
1381
4276
1138
3948
7218
4952
8645
11660
9058
14683
8304
18
6889
1657
8298
3906
5116
13858
8488
6739
9581
8468
12505
12094
1612
13136
5461
4663
3718
10659
14486
5378
13789
9484
32
1333
31
435
10245
6608
8298
6486
3337
12276
6947
8408
5051
8100
7415
5350
4451
3454
11802
4510
5071
1257
10108
9834
13500
7047
11829
11494
2233
12038
12123
14214
1483
6267
9018
264
9883
13561
14194
11837
6063
13611
8061
4591
3639
13213
12638
5839
1737
5011
3181
8051
12864
10896
12440
1762
4011
14046
9162
12127
14723
10474
11059
6287
4241
301
8352
7026
1353
9635
2858
13982
10129
13340
5983
12777
9946
8557
6152
13405
2849
4280
13722
1112
3401
2497
12415
4437
8932
7180
13608
1492
1799
7203
14660
1597
13330
3103
8502
5182
12292
3837
1064
11801
11913
1979
3087
2933
9629
8791
11157
4035
2606
11087
1026
11486
14845
14611
5379
14806
688
7728
3848
10994
4422
14101
1643
4115
7701
13853
14121
11801
13132
3443
2673
2915
12048
2827
11809
5304
3888
4980
14203
14596
8634
11541
3056
1078
2938
4829
13875
1068
3323
14789
7478
12713
2239
14093
2570
5910
468
9589
12343
416
11
10131
273
3775
11345
6109
410
13497
8133
12984
9802
7463
13655
11501
7894
1792
2678
6659
4060
203
7585
3069
4674
3365
12132
10777
5587
9481
10003
13815
6993
7134
3500
11694
2210
6682
8496
10437
8767
12929
5180
6946
13645
12116
1225
1878
4542
1949
5930
12084
9187
3508
4463
14590
3001
312
6912
4823
3025
14103
654
11063
11152
5845
12828
7459
13850
14368
12102
7799
7537
14411
13322
13548
12926
8820
9748
10538
4743
12372
14586
7951
11860
12299
8101
2972
5236
1739
6550
13234
9184
11461
2859
6716
12111
5764
9388
1233
9625
929
10954
4807
14408
5547
979
13919
5283
13758
984
12095
11243
11374
2212
10524
5330
2617
14701
2309
14789
6928
2586
1866
3302
3333
9842
5837
12218
14966
3770
7059
889
8366
14211
10099
7572
6367
9172
3842
9285
8307
3247
1287
13140
4001
3298
5479
6603
11648
8829
7063
10127
210
1462
4911
2824
1015
8210
5183
12613
11325
1079
11935
1600
4939
9261
14956
14893
1221
13601
3009
7117
13216
8190
13259
2192
7642
8930
12964
9071
106
642
964
8941
12967
13173
11561
14880
13841
11126
10226
13345
5932
1759
10837
6188
1124
544
8445
12346
4412
7589
5692
11773
2977
7267
7896
1693
890
2120
13097
8429
14378
1077
3581
4171
11347
13260
11113
6419
6416
12919
930
2842
8915
4222
11748
8882
10988
13516
3483
8475
1105
11029
5376
8916
13063
13198
3061
14755
7323
14487
7594
11160
8069
14938
2281
4777
12531
2095
11337
14703
10940
8233
13521
6325
11745
14949
10940
11115
7537
14568
13316
4276
9936
11242
3351
2824
14814
6177
7933
10727
11940
1675
2824
13262
8795
14971
5887
2954
13685
623
7236
7905
9779
7618
10426
3557
10391
12450
9322
7919
9002
4132
12858
5570
1946
5923
1274
939
5802
12628
14184
11524
8591
64
13409
3594
11025
12778
10765
6024
12974
766
32
9529
5106
10694
12283
11523
9566
11152
2981
2495
3183
12704
7097
4738
2705
14879
11609
13981
7295
9605
8325
10020
2037
10230
10866
918
14986
2769
1561
5828
6801
14338
6645
14980
10274
9686
3616
9403
12719
4147
14302
9599
6171
1030
14759
10518
8218
10399
13680
3756
10124
4775
14845
14407
2547
7762
1240
9554
11693
3436
13884
1234
7050
13178
4301
6945
2256
6108
10566
6587
5664
2911
2832
4231
6099
4287
8543
4621
4578
12914
11472
1465
2742
12125
10514
13650
10047
5688
5723
5306
5119
191
5148
2173
3568
4192
12190
6389
2387
14792
11312
3882
969
5318
2167
11128
8322
2875
8656
4937
14382
13305
1613
7210
8187
2104
3489
14803
4335
8912
10916
10414
4829
4472
13360
9813
4199
6181
6709
6434
4074
6544
8958
4807
2439
11691
13608
7976
10132
8196
1363
12530
8338
503
571
7
11171
11594
12130
10519
12395
10174
11919
807
3371
11452
5038
12200
8500
12562
14808
4819
9866
2664
5719
12064
11432
1104
7314
8539
6330
9546
5420
4722
2266
13697
12530
13518
12611
1333
1050
4895
3723
986
8105
6911
13655
12044
9116
10628
13510
8828
12395
13180
5011
3587
4564
13090
5651
2702
9754
8445
7446
13541
14424
4027
12146
11375
6057
9237
1818
564
2884
2470
12285
14737
8841
2233
7459
14921
1946
6397
10745
13032
4302
8505
285
8390
8068
9327
12881
867
13139
6857
5206
5633
8114
1113
10622
8438
4335
7462
1052
7732
11868
5625
13435
103
3199
2966
14521
12895
1309
2305
2218
847
8394
14376
5404
2451
10291
8015
7684
1311
186
7375
9179
9577
5088
14602
10095
12180
14260
2181
8803
1839
9523
11051
8538
5732
7258
11939
1269
3336
2523
6096
8172
12256
14678
4368
13184
9903
1359
8257
14447
6015
2332
5796
10751
128
7407
1951
204
14861
10567
230
1894
6432
13245
8223
3005
1205
868
10040
3579
1884
4034
7083
1377
9777
13083
9758
7734
5793
10076
13079
10510
11138
6721
4077
9665
8119
12690
12174
11418
2539
12858
5921
14865
12667
3440
11364
10049
10265
7919
522
8194
3722
9631
14723
114
8333
13191
6351
11919
13541
8731
6233
9094
2794
9264
9188
11424
6229
10558
13564
544
12132
7650
13871
11108
1485
7600
3906
8349
13845
11228
14725
13165
11184
1116
9875
14194
175
7229
1189
3434
2087
8907
12540
5752
10224
9918
14148
8318
13198
14097
5807
14325
13657
11764
3369
10795
12014
4399
55
2412
3311
5278
2709
14501
10386
3660
1055
10724
4392
5432
8303
12050
804
2511
1505
6742
5360
6498
7975
10250
9221
5604
12682
13392
6698
5323
4391
4662
1925
13252
13195
3398
9577
14156
12861
11750
2153
6545
9340
4397
14522
12695
9911
10953
11160
844
375
1344
5357
2751
14780
172
11757
1439
7976
11432
13612
8565
14170
12942
7555
3890
483
10087
13898
5359
7801
9879
6558
6087
10733
6459
11229
1603
6582
11882
140
13330
1034
4050
14881
1442
8822
9395
6044
4608
1110
14644
6368
1688
12445
3182
2543
9355
12827
13357
1021
210
8356
12538
3718
5514
14730
1300
4646
8734
3425
3786
10354
5266
14870
1345
12011
8755
10194
1451
6022
1446
10480
8357
10234
12125
11720
6825
13681
9093
11938
3263
6
13250
12286
12120
1159
2015
11809
10678
14656
14379
12202
9210
2467
13841
2875
6229
6783
13118
13913
9850
1451
8582
5433
8044
9517
3301
10199
10579
11759
3901
8842
13640
5982
12165
14592
710
3996
12637
8192
8994
413
10450
4959
8794
11783
6116
6342
14889
4404
4381
5718
8878
2468
3913
3023
13411
656
5807
6289
4481
10695
10495
2995
1836
1482
7196
13072
5864
7167
3984
9941
6864
10360
11409
1134
12027
4193
6189
8196
10597
9128
6502
5783
9782
3308
6471
14875
7926
9417
6539
8250
5925
5097
7423
7757
11893
5766
6163
10954
13256
11470
14218
2354
9103
1397
335
5594
2506
4230
1929
6976
6741
199
8946
11008
8031
13944
13250
11843
12914
1900
1808
3348
6268
10125
10121
7058
468
14689
848
2804
9573
2147
1803
11244
4521
14529
1960
13759
9529
12002
14924
1453
12649
13622
14630
2370
6930
4987
13851
10274
7089
14674
2932
7743
12908
12324
9276
883
10625
12581
9573
3990
7933
9307
13682
13935
6211
13766
8458
11023
11655
12215
2859
12324
12972
9826
10187
2816
12327
3883
4240
12540
4661
14195
3161
14394
13458
13670
5870
11450
9852
8691
1623
5390
2474
12359
14555
2723
6095
9444
6137
896
10120
10132
9702
7655
5357
8248
14662
10128
12682
9434
10680
6206
2334
5852
7748
14084
4400
10676
521
10746
12008
563
13862
12221
14414
14818
14666
6495
12429
12279
9323
1874
8738
11079
11357
4331
1756
3873
5518
3454
7690
10650
3350
13468
3970
3855
276
14540
2336
6707
4992
8684
14485
14590
14176
11566
3829
11568
8711
6853
12626
14356
6274
14493
1102
12870
14518
13270
484
9523
8175
7264
4805
10333
14176
4710
8076
1648
2124
9225
1182
10763
7505
14171
10762
2929
149
8524
5948
3533
8165
10854
4535
9881
6237
10231
12804
14826
14042
10132
849
8733
5788
8399
5795
13551
717
13321
426
6773
7206
12111
14997
4046
5719
5808
13191
61
13020
2616
612
6871
11857
288
1972
14351
3450
5942
13982
12648
4583
6281
13126
6342
12568
14647
4720
4864
12884
7657
8108
3714
9848
6691
7253
12511
8017
3951
14199
10788
8896
9699
6250
13902
2349
8573
13786
3962
3425
1750
12307
5471
7625
5813
6091
1702
14808
10417
7424
12908
2187
9266
11151
1122
12453
7957
11225
14661
12952
14939
4191
8363
5270
2744
13014
13739
13594
14174
14142
3445
1594
5465
10384
6223
13349
5785
5321
5520
9048
2811
1949
1175
10287
1703
10522
14140
7772
7630
2315
320
33
3163
3873
12013
201
4595
2471
13581
8485
7130
7817
1683
10715
14400
10069
7113
10939
5461
4130
5875
2375
14947
8990
3294
81
3228
6308
14545
475
3821
5022
13184
5635
2847
299
2627
5965
13040
3918
3150
4015
7614
7791
2714
5224
7726
6127
2533
14627
8846
10271
5397
7319
10574
12213
2374
5103
13945
2185
11504
2344
1500
12830
812
2713
5605
3339
9810
1201
12934
10772
2416
10004
13649
8729
10998
6311
12295
3929
14542
9718
8690
13223
13535
7494
3002
9667
5904
9988
3874
7129
10623
7254
9353
6749
7425
10229
1248
9807
2659
8102
4582
9571
13363
12316
12251
3836
14118
14367
957
3376
185
14366
6816
11761
13092
10784
6302
5073
226
3178
8587
4887
12626
765
7447
14253
7664
7850
5356
7091
854
10631
11712
3563
10537
8182
4824
8677
4742
13778
5750
2438
8539
839
2885
4153
8746
1718
8275
3151
12518
13248
6583
13147
9346
8025
310
8903
12573
8817
12129
8401
5947
2219
2167
13897
9251
8548
7939
3187
4453
10013
6280
11431
14496
9499
6943
10601
894
5979
5290
5310
2919
14994
1859
13090
5825
12266
13760
1352
7136
10123
11968
4549
11070
8016
12720
1877
11984
7936
6394
9761
2890
3577
11839
3787
2278
14809
12538
14309
10009
10575
4786
2995
4103
5549
10678
7012
8253
1120
5254
3506
11496
12830
11800
11288
2735
10129
4131
6374
5883
3459
5110
12069
822
9769
10668
4699
8740
2499
989
8798
740
14097
8250
6796
14007
4853
494
3361
10952
4516
9902
14135
6190
3796
6754
14742
10071
12428
1728
7284
11091
3247
2321
14370
6398
3256
12635
13224
12849
5329
11241
7867
2117
5184
13750
14696
14047
2613
12676
5428
6753
2432
3007
104
5666
1396
7461
12396
5732
11788
3858
7588
3606
7541
11682
2548
10402
7077
11435
5702
9478
5972
7493
13777
13386
10579
10492
13129
13447
10608
2293
9827
11418
9165
11303
7505
1213
13714
756
2583
10152
14456
14777
3029
12423
6243
14025
9740
4700
10293
14139
7720
3889
9984
3240
7082
8071
9912
5975
3729
10031
13538
10729
2731
6449
8018
5164
8969
4725
10806
11002
14697
997
8781
13383
4889
9313
11608
10666
13105
10663
10155
8956
13289
10514
12945
6207
12236
14106
2952
3114
10771
1226
1607
7886
13848
2420
3982
3104
390
5394
13796
5302
6260
9979
5696
6541
1773
6824
3851
10296
11173
14312
475
8698
10681
4897
8085
10671
11240
7657
8746
8978
3874
5466
14274
10175
3628
4715
3807
5199
1305
1176
11137
4340
10725
9369
12926
13582
9173
11865
10517
14376
4890
5862
14412
1974
9908
10998
1210
9127
184
13601
11158
11448
11903
3231
13677
3099
1766
10275
4633
9211
6137
238
7705
4647
9252
2353
487
11948
6890
134
2119
2269
7743
10587
5512
5655
13334
9109
9056
2403
6226
9117
5729
9625
5572
14640
12198
188
1944
9786
3952
12281
14678
7168
9982
5928
109
8094
4499
6549
5299
7045
7599
223
7054
1037
10641
14501
12032
10128
7887
14610
2529
493
13587
5512
10340
12080
8295
2928
6804
7848
3129
6786
14915
10157
4645
11854
3531
9140
4163
1756
14473
12512
12138
11127
2309
12553
13207
4094
5180
5514
11599
3502
7662
11988
10033
1003
9410
13412
4340
2607
10651
4566
13809
13168
3537
12947
8257
2396
1812
5039
9119
8571
8622
2241
9609
9687
3251
1200
14742
14399
13743
989
13018
691
14842
3461
12735
174
11108
9721
5355
5136
2047
6674
1815
10535
14357
8240
9284
12173
274
13284
7986
14424
1432
2885
5589
13309
2968
13926
2774
11688
13658
9520
4286
8322
7766
3031
5156
3834
1783
601
13192
5311
8405
4021
10993
10206
7355
8404
9252
2775
7976
9009
11718
14719
160
9190
4841
6897
1228
10656
4596
40
9371
9521
1836
11991
5726
3985
12466
7908
14644
9577
4071
2996
1116
2640
14037
14501
2705
5605
13778
6628
2819
9478
14697
10450
5700
4511
3947
1911
3803
8683
10266
1210
328
2756
14973
14729
1276
12280
7275
11048
8622
2937
14682
10798
5724
8665
10162
11991
2873
3248
6168
377
12388
10270
5143
7067
14365
7836
14398
9811
9575
5398
8067
10611
12813
13109
12141
7709
11293
13725
11377
7143
1613
7335
9503
13156
9432
10313
4923
7010
10186
3890
3935
12203
13683
11429
2705
7441
7608
4175
4273
2226
4121
11344
13141
5126
6778
12920
4177
12439
11492
758
4201
7471
11295
2181
1772
11858
1357
14728
1290
11124
9035
350
8867
10298
10067
11609
6911
7563
14036
9899
12514
7572
2560
7673
10126
1044
1974
10774
322
6799
14825
3005
7352
13306
9817
6374
187
14603
9060
6901
11818
11805
2974
6403
9513
1654
13670
10802
337
3804
10826
1523
10136
351
7401
6312
9959
12349
2598
8329
7690
2976
10953
5795
2909
4164
587
14836
3176
13349
2727
10925
184
3642
13997
3627
12228
1051
12452
11555
3552
11992
5879
9450
5117
1437
2129
12146
8633
1589
2769
547
9485
8267
12475
4505
5683
14956
10321
13799
12447
6285
13756
11339
12763
14217
227
2830
4636
9924
9214
718
1823
12983
13987
7525
687
2988
8317
1844
10690
616
4982
4577
13234
1787
4282
2929
10299
13351
13343
4513
147
8604
2463
6824
13562
12511
8744
6137
8635
8306
12801
2244
13101
13570
7641
3205
12867
13370
12490
212
1142
10944
14866
3423
6700
4050
13183
1412
12313
4002
1082
6112
4746
5342
5606
14476
14711
5010
5834
10629
4827
12726
11247
9941
12279
3387
397
1997
7319
13269
6437
5704
12139
1935
14490
4823
12331
13439
9601
3512
3508
8487
2747
4925
1998
11540
10647
11909
1779
3286
1396
12720
4043
8730
3107
14372
13207
11672
14394
12411
13968
6719
12359
1421
6987
3113
5433
13928
3909
5050
14126
13903
6790
1111
3817
498
2736
14477
8273
10946
13248
9834
2744
13511
11686
1731
11224
5635
8947
2959
1880
6337
7983
12355
10467
5852
2031
10777
14397
3653
12214
5455
9575
5876
5840
4450
14649
3473
7155
7241
14624
5668
8666
11869
5090
11366
13745
14053
2696
8810
4861
4199
8465
348
1474
13087
8318
4009
8844
298
3592
8340
1908
6797
14893
1555
12726
7719
6402
5737
4431
8386
8882
7559
6046
11829
8407
4061
5646
858
2777
3299
1421
12292
9785
6367
3608
11006
5221
6835
8700
7723
14169
2624
14411
322
5118
4661
9862
14889
12099
6455
6385
12841
13951
5915
5485
14921
9985
12093
2195
6143
10462
12312
13784
12529
963
1437
1353
10225
12799
1077
8998
6480
1451
12554
5998
1225
9172
12048
14438
4145
4981
1768
9432
1946
14049
8448
9883
12808
8362
10008
10423
5225
1519
14765
8627
3950
13017
1218
693
3881
14640
7284
3361
1919
115
10437
10426
7027
10699
751
6123
616
2495
8973
3107
12856
11445
8640
3545
12372
13934
6017
510
4264
4699
10848
6853
14127
13435
3570
10027
4151
8667
4408
11231
5549
3301
8496
14233
2090
13185
5860
5770
5867
6120
12327
13856
7386
2507
6241
2289
615
9464
5041
8057
10227
8412
5911
10353
14372
12822
13965
428
2910
11465
9989
6615
8000
10593
1175
5086
7321
6249
11341
13955
6224
1797
1360
882
5810
13945
12554
2432
2590
9245
45
1541
11960
2553
6122
10787
10290
12665
4925
13672
8352
1467
882
3320
12676
1417
14771
3808
13462
12123
7190
14931
2376
9660
9261
7844
1164
11881
2377
12342
9567
5689
8850
7541
14674
14817
11393
4396
10385
12122
2793
10555
7826
9517
13168
7435
1738
12883
4241
12460
6039
3779
5607
4940
1747
10431
815
7991
11371
10078
2217
1309
5631
1054
6690
1132
10534
12638
2607
14316
7447
14052
3514
13055
9587
12293
13025
647
13183
12464
8330
8571
8424
4818
2425
6506
12711
11114
14923
730
11460
2038
8114
2553
13550
2093
9747
4133
3146
10127
4075
14904
7923
5465
12305
3746
9777
2636
3820
9423
13777
7167
2352
4940
5061
1985
2561
7491
6005
5302
10122
12130
3115
4227
4313
4436
10125
7863
5974
12954
11186
6205
3809
13580
7682
14200
5794
42
6848
12238
10167
12467
1616
7554
7821
1641
2322
8948
2283
4665
8571
12792
6236
3308
12765
145
8041
4420
725
7427
9373
14289
6912
1081
6565
248
754
12133
4021
4712
6129
11713
12193
8079
12000
7175
6709
11959
4940
6643
7957
560
2527
9381
6005
13275
1005
5112
9048
3212
7342
1215
8518
6977
1276
3041
10615
1599
2827
6017
1466
10721
5444
4528
13262
9775
6441
6940
7056
1684
3181
950
13574
14841
1088
12929
1847
10705
13124
7797
6332
14582
2855
14812
4099
9156
13996
6114
6870
11617
5421
3383
9409
2846
4320
9860
12427
9763
9518
11376
14760
11274
12560
457
9350
5429
3632
5029
3102
13620
3404
1
13148
11452
794
1893
3187
12088
13673
11412
7718
886
14659
565
2822
14114
11207
2751
4817
13797
11319
11299
13119
14803
7742
10489
12554
12675
8692
2051
12421
10460
6512
244
586
11095
3284
11566
13007
7296
14353
13443
10179
9660
1286
12279
8586
12033
8876
12714
7271
7244
8773
12885
10115
13428
11037
8700
12840
5736
10613
6787
10588
6670
8245
6002
14536
2177
11033
2878
5431
9321
14742
14118
3776
6188
11279
12897
6758
8582
11781
11178
5916
1635
11040
6667
13521
8512
13600
4063
6944
10534
9122
9398
7046
13603
3277
10822
4721
828
12498
706
513
9406
14201
5662
14773
9798
8175
2160
4651
10094
6083
6323
5946
14393
2302
14424
9574
10819
10655
8326
12317
11966
3065
2480
8362
10953
3823
13038
12055
5110
7543
1850
2212
6683
14511
9258
3078
4319
7073
8657
14447
14807
12638
287
417
9519
4602
484
11111
2890
14996
3320
7075
6620
11561
11996
12313
2489
11776
9932
4616
4016
6841
13477
8627
299
7920
8077
3058
2644
10192
5250
7641
14833
13710
4738
653
10997
6597
9955
5750
1421
7462
10331
10954
10742
4318
11254
6960
13368
2744
3421
13913
8790
6743
4810
5025
7144
1380
10554
1439
4193
11303
7220
11547
10872
5093
6847
11243
11153
7860
10786
5987
11360
14218
3832
1583
4764
8889
11324
6419
3675
6110
5207
8790
11405
1371
10110
6284
2900
6151
7562
8221
11032
4593
4889
5580
9214
5433
8144
7147
8197
5577
14392
11879
1056
1986
10667
4224
13578
9532
11401
8487
5117
4439
3028
7155
2247
677
9397
6141
5261
8029
1796
2624
13875
3879
2966
3127
11565
4034
5169
10308
3749
3334
13480
3107
37
3126
2669
1346
7304
4575
177
1521
9931
960
9755
7243
531
6283
13585
4391
6444
5975
2612
14028
8219
356
1845
8195
1178
4824
3160
10998
8049
12232
14987
4691
5877
2097
1786
164
8380
7358
11189
9234
12841
14851
8657
13331
11383
12234
10228
1864
2873
875
8974
14978
9376
8141
6686
6659
2718
11265
8426
10057
7125
10147
6784
6501
9249
3823
2993
12478
6605
10668
10070
11619
6894
3097
9541
6894
11634
9022
7689
11888
6210
7697
10485
8694
5168
5330
14837
742
10546
11498
8266
6445
9698
13327
13337
13973
1940
13444
10358
5094
5007
14267
8895
2908
1759
8212
7967
10255
5398
9080
12469
11977
6961
5735
11443
5634
1465
6377
10142
14150
10673
12416
14660
2657
14480
4079
1288
13600
5174
5911
1801
11408
7197
14928
3831
3100
12870
10963
3921
4677
13199
3985
12494
540
5499
12819
12490
1985
1455
12516
11092
5434
6615
1894
13363
2412
11237
14811
11939
6672
7362
12557
4055
14131
3984
2517
926
13006
10085
6490
536
3905
6451
680
5448
8816
11648
11551
13805
4365
6187
8921
12231
12928
1951
14554
386
6781
5757
4229
11117
8215
1608
6426
7303
3695
2050
7103
13258
9425
2195
11431
4253
7241
10574
6856
14627
8796
7656
11557
6876
5304
8854
14504
79
5024
802
8631
14377
4065
4079
1282
7993
6210
3692
9589
6489
7232
11320
13178
3584
7763
6924
10417
1075
9449
11822
1913
9915
14424
13271
8262
1345
13036
4942
2376
2720
10481
13456
11371
4320
7047
5635
7334
13740
2089
3823
8324
12399
14852
10447
7782
1470
9871
6281
10127
14191
4789
14301
9054
6606
4764
9686
9091
13383
5522
3977
6478
4883
1519
1461
52
8647
3090
4082
14593
10206
4376
7821
8628
1286
4875
7965
7865
1913
8261
13407
5663
13266
5347
1770
6392
1492
13391
9110
7331
12156
1739
6245
4938
14724
8515
8864
7016
725
548
5170
13194
1384
9673
9099
14681
10341
13903
8032
3437
13343
11024
4757
11463
13046
6514
12993
6820
12766
4338
3625
14810
6858
2850
13572
14921
8636
2966
11844
4339
754
2035
13697
4125
2353
8835
6065
11170
4241
2382
8398
10039
243
676
4849
13130
6670
1683
8011
11806
6130
5749
8274
7815
3304
14981
4571
12902
2697
12551
8090
12028
10929
11547
4045
5225
602
411
10332
10453
13948
9457
11405
6509
10566
2236
12249
4700
13291
13697
3880
13953
8830
6477
893
9784
11572
13931
3475
11349
651
5444
5082
4301
14137
5332
11293
12620
5814
13298
8857
4717
11653
10350
2292
3466
789
127
658
4379
8847
10495
1324
7504
9789
10553
3135
14192
12227
4531
11868
8770
4592
6230
1955
5447
9375
2757
9427
6133
2938
12216
10835
4873
12982
4995
6937
5201
7327
7368
267
5704
10732
8916
10932
2118
2191
9515
7841
7817
3600
7417
12114
771
12117
10095
9944
256
5200
846
1102
11695
14856
14297
14582
11003
10756
3726
9422
14253
9439
9640
13214
13164
5046
9835
8226
79
5203
10076
9971
3649
7649
7909
3616
2429
14688
7135
8868
5990
5389
9790
1496
12722
235
9071
14667
11500
7144
1736
5123
6847
8651
8036
13245
10790
12253
5867
7206
6291
1649
5708
14454
9641
7845
10835
7729
10188
12475
5851
8103
13025
12147
9673
3274
11441
9007
14060
5997
818
5269
6508
8534
8571
91
7764
2524
5114
5490
1405
11371
2188
9269
3073
10640
5641
7699
11970
9603
7049
13439
10361
5229
5884
6524
8174
7549
7309
6050
11234
11680
14860
6723
1634
625
5409
10828
20
177
9220
3691
10294
9692
14904
6941
10824
3090
4207
12221
14929
6631
11300
5359
14751
9570
9587
6380
5467
14556
1191
13996
4575
3326
2977
11078
13033
9470
2476
11181
12789
2900
3532
884
8797
4987
10424
4565
7254
7984
4998
3617
11632
11784
3043
4580
12126
8420
10319
11061
2062
9248
11798
14719
14070
10137
13211
8783
8523
10887
7136
1483
1843
6893
12294
5867
4641
4859
3479
5292
1885
12923
13137
7380
7248
8133
14751
14734
2366
8238
9364
12070
13429
11627
341
5929
227
14444
449
5056
12420
8350
7834
1821
9129
6295
6782
14459
11432
4465
11348
1001
6312
10288
11149
3602
8224
10227
8642
219
2518
9428
2514
3570
11996
14510
8352
7526
11032
7993
12485
10609
1354
6422
14790
4266
6916
5969
5108
12701
2674
7842
6508
10618
3565
9501
284
4176
10760
4118
9560
83
10413
10105
12578
4281
10940
3014
13879
1981
11040
14207
14004
10994
12164
14941
6396
10050
12772
10784
6381
1655
3543
8101
3632
6106
12647
370
3527
1773
9436
7280
9672
14172
911
12551
11944
5197
12870
10005
10191
3009
3735
12732
8303
646
12073
7710
9528
2683
9821
233
5889
520
5367
6183
10421
11381
11661
14848
6925
13148
12671
6182
8669
10760
8412
6522
2760
12799
12775
1689
5984
13266
10141
378
11618
5146
4302
11039
14497
12167
14378
11610
9144
3479
5329
6927
4333
14878
1111
7828
14077
8243
11442
14252
2341
13355
4448
10811
4639
8489
11938
3778
12016
3368
10670
11405
13610
5137
7618
3679
6936
2503
258
2436
4480
4868
5844
4761
626
11520
5721
2834
3537
5667
2799
9463
6579
6493
11541
2167
5935
3042
2979
2710
7776
10356
14228
2213
3428
434
5230
5126
12872
325
10550
1460
12976
453
14723
8185
11279
8347
1002
4361
2327
370
13109
6321
12777
5804
10180
9430
12650
2350
3013
8493
14580
12552
552
1789
8479
377
10588
1387
9648
13370
6549
3500
4457
6614
9448
11334
3755
8058
7284
515
6787
7766
8139
5522
8172
13952
7053
2070
5336
13587
2852
1564
669
14354
7262
14667
2788
11260
5640
5021
11597
9577
10139
8738
11808
9162
4279
14907
7622
2200
14066
4293
10684
14563
14844
3971
3081
3383
5351
4929
7630
6704
11280
7817
7325
14397
7764
12590
12008
5088
419
5743
6078
5467
14823
13429
6859
9004
7457
10648
11494
1295
1751
222
7052
4487
9504
5439
2083
8979
11390
9827
1821
3872
6034
14602
8378
2661
3220
9190
12031
5901
9600
731
8678
2672
5749
8565
2125
10962
7213
2661
1931
2064
2224
6124
7295
8261
2064
13142
14565
7003
6753
5412
1520
7697
5190
14420
4261
5956
4467
13361
4825
9393
1843
6963
10345
318
9319
11354
8542
2465
10921
6289
10535
4135
12375
11713
13111
4443
7815
7939
4775
10443
12827
14872
1379
8447
12302
8598
11013
12340
2992
3185
13283
4112
723
10382
12204
12928
7340
4330
3150
14837
10017
5866
43
7862
13370
2808
14043
9038
3797
436
9128
13105
6254
11384
9892
12031
2509
7101
14806
4410
803
7010
11810
5471
14833
8001
1736
7779
273
4645
14180
5998
11096
11521
11660
5068
5405
8452
6465
1465
14518
7725
2675
9197
13837
6922
1773
14438
10361
11930
6347
4572
9431
9084
454
12804
11005
1837
12703
1236
14964
12967
2631
4794
9242
3791
2364
10907
8767
13060
9168
9291
1399
14014
693
14619
9908
5784
1888
7987
8033
4032
4902
7116
7745
3408
12794
6779
757
10781
9877
13552
2496
9200
7325
5666
13040
1867
4439
8725
10798
8529
790
12848
14585
6890
12482
208
536
7023
9798
9553
12385
12908
14158
9821
14977
14042
798
7818
10259
14862
4563
14678
9580
13216
6777
2480
8378
6620
5473
14977
14662
3351
10010
10088
1907
10019
2319
7203
11268
9076
14804
5005
2336
14144
14177
10809
2539
3693
11015
6409
6117
12388
9937
6429
2511
14867
4706
11241
8835
8245
14104
14108
13598
5202
14453
7312
14727
12436
7560
3244
4228
5264
13170
12761
4096
11198
3232
9019
1963
5250
171
2394
8650
8970
4618
11803
12600
8111
2282
10884
12907
3187
11232
7099
10912
5532
4900
3654
7987
1759
3948
3970
2709
9520
13287
11426
233
6107
1723
4365
12296
6095
629
6638
12943
9998
5089
11056
14847
405
12536
6487
14373
13241
12967
9897
10950
2072
7740
4971
8114
12510
8500
4743
9621
10028
11556
13597
10539
6404
462
2985
5486
9875
10825
12232
3433
12387
11840
7476
2429
11612
6504
7112
14899
14325
3550
1488
8835
13005
5652
4429
14566
6380
12717
14432
9981
3509
3173
14320
7304
8989
5561
2258
1729
4499
6390
9005
2780
7884
14919
10412
1473
14733
8017
9503
11351
11533
9512
12434
11193
5357
5142
5537
7338
7617
9756
6790
13175
14967
5188
3580
2876
4235
1130
13861
9933
13158
11914
7635
5732
3102
13636
1927
7216
12232
12763
2905
2315
11826
13809
14519
12613
5641
10682
14828
9025
267
14471
12994
9828
2076
12419
14031
4587
5485
3171
6589
2975
8047
8373
2554
3822
8576
6156
7351
2839
14094
13442
6776
12835
10434
14642
14804
623
289
3807
12552
7909
628
10445
2182
11481
1525
10643
7739
6956
6322
4227
6249
7676
14090
14578
10378
4504
11597
3819
6336
1232
2947
11261
7654
2875
3524
8848
5378
8870
10713
12753
13516
13569
13021
13835
6183
11759
9009
9195
7200
10360
6270
11687
10788
5051
12894
9443
9238
3159
7573
839
7327
510
4534
2941
10810
6472
4001
446
13500
1848
14212
5083
6837
6459
11763
259
4711
11414
12156
2241
9790
9860
14668
452
3977
4783
5725
5162
2088
8069
1648
3165
3111
319
2127
10124
635
3606
9550
660
11860
2830
10017
6350
9940
11650
12530
11462
2860
6904
12609
2078
6561
4576
14052
9179
5900
6955
2624
3747
12893
8667
10319
9267
5178
995
10883
8800
13860
5310
870
221
14317
10309
5680
12731
1465
11456
11795
4519
10956
3266
2587
6029
12440
10678
6702
2363
910
3480
14139
11522
7339
6841
2325
4107
14751
4503
13112
10081
10342
9457
12644
10115
3234
6662
14090
8706
1373
1649
9761
13859
6696
2565
10035
3887
5270
4418
8162
4591
2491
12863
13708
2876
5878
7493
117
13973
14577
2150
10939
10005
13346
5269
12634
4034
13764
8859
3294
4706
14472
14684
7847
12299
3266
2620
5782
8959
9285
342
965
5077
1482
7120
2012
12558
14319
14126
5512
6043
3880
1716
11448
11741
2375
9082
12623
12385
1282
2361
1051
10864
14660
1494
3103
10385
644
825
14306
11132
387
5458
2304
1814
3739
8504
14678
663
9281
12203
13875
13336
6611
4217
10191
10282
7881
5218
9376
3420
6189
9042
7593
7611
2593
723
10790
5250
11395
7745
13465
9105
14376
13142
933
3148
5770
3389
300
6243
637
1553
8148
3804
2848
170
11198
4536
13608
2716
3001
4445
6940
4848
2623
11492
1040
12095
13317
13823
154
5809
2909
14575
988
11472
10454
12327
11101
4067
14375
2052
11848
3525
3293
395
964
5988
4781
1898
12359
13145
11328
5718
11425
4444
11602
5765
2178
10655
13323
4995
13672
10730
4343
14105
3373
314
1438
8561
4783
13044
12063
9892
1782
13157
11065
7716
487
2325
6925
3751
11307
12224
11683
9268
3052
8130
678
11223
1104
4753
9185
6143
5435
14584
13573
6961
6389
5849
834
3533
2080
8850
4818
2652
5924
9703
5285
8179
5723
14611
11467
12461
7258
1060
13675
1552
5184
12214
7481
3359
224
14810
2125
14163
12905
621
6376
635
4843
3291
7744
7361
11273
821
6915
7450
4132
11046
5895
4768
8019
8483
8280
10204
495
3726
2340
12014
14294
3639
13009
5650
6414
6805
1240
9811
12861
10158
4102
8818
14506
11646
13048
1157
8192
13923
6246
14405
2131
1036
13499
238
845
12979
1317
10932
11519
3387
5410
10395
5975
13138
5357
7797
37
9177
13160
1066
12307
5784
7694
5564
10671
11558
9252
9371
9776
10982
5599
9032
11697
4737
2194
6468
8518
4532
185
1535
13898
5842
6335
6514
5665
5093
4636
5979
4696
12804
1103
3310
10515
13615
9876
2418
14343
1768
4836
7827
1990
13991
12699
3829
5547
13002
940
4258
14700
14299
2965
11728
5533
56
12430
3791
7708
7419
12674
120
466
5458
8079
5995
3113
3840
12727
7222
6612
144
3255
6052
2179
5921
14680
14926
13884
1580
12132
9761
8069
11286
5697
13125
11507
14128
8852
5240
3150
3138
1855
5216
8690
12379
8486
8184
4843
875
482
371
10584
4770
448
13745
6265
872
5333
7447
14154
14983
763
2834
2773
12755
8508
11963
828
8751
11143
9690
4395
12547
5805
10568
13370
6729
2313
9585
12811
11738
3775
3278
2967
14712
9961
543
4975
483
7841
14393
8464
348
5315
2097
12523
10987
456
8636
4299
3080
4096
14967
4503
3485
6247
10629
10103
2232
13314
3822
455
84
7957
12286
1820
761
12641
7976
10326
4554
3251
7814
10265
2153
8648
6349
12001
10286
529
5788
9778
2674
4756
8371
466
2265
1136
12770
13584
693
3207
5898
4471
9955
9430
12263
5856
10845
7465
14708
152
2872
7380
7953
14100
3388
14227
8666
5862
12877
6285
4213
534
14761
2656
13535
14584
3200
3480
11161
8214
2688
1917
13273
13014
7633
1123
6638
1935
11478
9812
2404
4940
11409
3049
4672
6185
11508
5799
5962
3157
12503
7759
12382
11018
1564
6723
3090
2759
7725
10443
14549
1637
9117
5314
3594
13753
2312
6398
1194
2651
854
7511
13432
11144
5111
6733
9385
4042
9469
10353
10654
2211
9954
5394
1735
8727
5062
11460
767
11960
7691
8141
11615
9077
8955
1446
7207
3785
11770
11613
11209
5059
10449
4242
14737
3866
1566
10952
11733
1953
5955
8624
14268
12487
8251
12831
13069
6459
3725
14732
7240
1081
11206
5740
13844
13964
4354
14354
14662
5939
926
5133
5374
7521
14303
3753
14955
8965
9770
8696
5300
5956
9708
12328
8223
8952
13304
6188
7766
12710
3148
12363
6468
14491
8712
3192
11871
8873
5949
10810
63
10807
13878
6490
4133
8681
14786
4958
244
3049
5337
2528
8068
3207
11576
2958
4521
3847
12243
7698
10050
3422
2774
12358
11214
7421
3001
14831
10817
7340
6003
212
6895
9744
9295
6489
13729
3576
3084
3248
1881
938
3704
5730
3867
7340
12139
7310
9095
2010
8618
13299
9095
5349
5922
381
5588
5111
3570
12590
14755
8366
11771
2313
731
11641
5850
1974
10157
6383
9617
13271
18
925
5327
11631
10138
9180
13034
8007
10556
1072
13887
6140
11230
12881
8943
12389
14327
5271
10888
4512
10497
14917
11199
10161
12881
4592
8969
3016
11877
216
12691
5946
777
13074
5441
3435
8649
12560
6404
12892
6197
9713
7243
6583
9891
9352
4180
7534
490
6753
14443
10004
1572
10515
810
378
4925
7321
7108
11805
7417
11688
9135
7363
14427
5816
5157
843
4990
14335
4026
10814
5763
1849
5171
8444
10743
14378
7542
690
5456
3103
5282
9811
8088
2867
2002
628
8699
13612
2891
8399
2717
9464
10073
4952
8434
13048
4738
2573
7080
4094
5051
13236
10024
14796
2946
1401
6018
6709
8400
6805
12841
11826
4791
5695
2682
7139
7958
8919
3651
4373
11234
8747
11901
5555
11279
13560
635
8527
11746
10181
10973
12584
2448
2908
5716
2856
4237
1125
4033
14522
7554
10275
10197
13944
3954
2441
2433
12162
9964
13616
6681
14763
342
12518
5239
10108
13109
10282
10716
13813
9228
5820
3563
1778
5515
7211
8082
7518
5259
8439
5951
1799
2103
10744
132
12380
5896
1959
11304
4323
8434
1290
7802
10975
8732
7218
9558
4980
10
14198
821
5476
9355
12289
10690
13191
8141
600
3949
2905
8513
10871
14117
13623
2318
4913
13229
4576
9897
4298
10578
950
3752
5761
10339
7515
34
12123
13875
14283
9202
6337
1043
10845
2668
36
11643
9789
3629
4774
2906
6445
12470
8653
7798
12557
11412
4687
11352
895
12614
6730
9341
9817
2320
9964
9898
3725
8415
12997
14441
12210
3273
5126
3458
2529
2121
2368
9004
239
6254
7357
13849
1278
4521
11061
2394
2953
2873
13949
2770
9880
6360
14685
10911
13632
13966
9513
404
14724
8251
11139
14526
4323
5072
2957
10552
10503
4865
9738
7423
13669
855
12896
12821
5828
709
3342
2022
13328
14154
1593
707
3650
8599
14835
4387
13686
4564
14178
8923
11599
897
13139
14589
5634
6011
8330
13748
5911
7276
2154
12721
8776
14250
6311
8119
13166
8301
10386
167
5657
12414
13200
154
7770
2428
5038
14533
8483
6008
8914
10987
12086
4733
6586
715
10651
7574
11086
9771
13012
13202
1173
12970
5517
84
3659
4216
560
3173
13929
10678
1287
10153
5507
11087
7733
12800
7336
5380
3990
6799
13874
4292
9433
8270
1914
13448
11220
9846
9183
4657
12267
3006
572
13834
7060
8547
12399
3949
8741
1445
2649
1250
230
366
2971
14036
329
761
12387
8148
14927
4650
10528
11350
5265
4587
1667
6343
6823
1680
1119
13049
9596
3787
12514
8424
6338
1070
5929
502
4871
6005
1700
864
13551
3616
4180
4513
5230
13451
11481
1824
10632
11115
4645
1984
1632
3814
975
8462
3156
2896
12843
139
317
13403
2472
927
5915
1778
2646
2239
4822
2758
9149
7171
6679
12593
5762
8248
12447
7018
10878
12648
2467
10682
8488
10348
5084
11381
8909
3060
210
1629
13335
9485
12187
10203
145
10726
5900
9014
11231
11193
2035
13754
1361
10280
14827
636
9260
14856
12456
12847
7335
677
13331
12548
11343
10729
5910
7417
9063
1756
3072
5691
14699
12888
10181
12543
13549
12264
1223
2620
14545
12516
1739
3551
13240
8068
8771
9230
11977
7241
7209
2276
8428
8789
10178
6699
9189
14431
390
2826
2998
5814
2786
1122
14919
7118
3825
1949
9674
1960
13369
731
6162
8567
11267
6484
10038
4854
3788
2885
3167
8534
11347
8552
1504
5319
2190
9719
813
3389
1740
3564
7904
7491
13390
12706
9066
8790
13305
8209
14808
1361
4577
14857
2069
6913
733
7083
5910
13630
10933
5136
8377
4672
3308
11225
7029
11511
879
9985
31
10854
6525
5104
13676
958
2040
9713
6215
10577
14114
6955
9929
9799
9949
9475
484
5023
3740
4497
2554
1592
4987
8813
10523
6492
8534
9399
10976
5720
4936
7993
3781
2897
3855
6511
2172
3778
10801
5570
5860
6485
9986
5241
8724
10330
2998
12953
7827
6321
2543
12553
8129
2261
5254
13973
9610
8602
5681
12858
8163
10867
2426
1087
1405
1911
8924
2316
2843
8524
6529
1288
14480
3542
10357
10191
3718
3637
4192
12899
11337
14993
1689
9212
12236
1953
10966
7092
14771
5150
10916
12517
1108
2663
10763
358
14802
12407
11437
10979
10632
14305
13395
1821
8062
13535
2087
14984
5999
2252
5323
865
5306
3624
7592
8306
9705
13752
14123
6916
14362
7870
3160
13346
4831
1583
11075
7435
3709
3389
11838
10565
3187
7621
2528
12670
5864
1651
2273
11017
10601
7247
10459
6570
4033
12542
10669
9602
14382
11410
4415
5108
11904
10101
9972
8021
4718
113
274
10910
8896
11970
4395
11096
14864
485
1343
6877
14623
8202
1792
4381
13437
7713
197
2864
9789
5592
803
13120
10811
9182
10507
6990
7628
4009
5346
10578
1232
13252
10549
1669
9505
2081
12668
4123
10038
14444
12859
1847
12448
6677
7892
14009
14371
8193
14466
9724
8076
13034
9958
13331
5352
14631
6515
9132
5288
14841
13654
14323
311
11744
5072
5407
5766
9919
1257
8389
10657
3827
11821
3039
13663
6434
3580
10675
6444
464
4681
4560
10363
14887
10560
13103
1663
5879
7310
4008
6132
9842
8040
10723
5034
5629
10658
1491
10860
469
3472
2799
246
8913
9277
3384
1928
11728
8017
11055
4100
10239
936
4507
664
2453
6542
5479
8249
11272
4915
9035
14134
5700
3399
8552
14454
10515
13021
8525
12168
7818
7244
3923
2475
6853
14440
7204
11203
364
7732
13767
5183
14689
5025
29
8534
12195
6220
1751
7246
14542
7905
4153
14357
2699
1843
8510
2795
2598
6604
12253
3716
4486
7025
13349
4782
11930
3516
5830
14980
2145
3843
2435
12361
5467
4474
1489
8443
1367
12737
12876
13810
8369
5761
757
6601
13860
11272
6623
1721
8969
2505
12200
9900
8080
13385
5551
11566
2187
10349
12648
996
12018
7558
5675
1335
3943
6507
9079
7043
13981
14378
5121
4771
8454
3761
1719
11689
12774
10867
588
10016
4683
1376
4593
9989
7458
3076
13069
5386
11783
1476
899
10109
5465
13722
9161
6520
7509
2944
7191
1825
9493
6967
1107
1330
8428
7907
2255
14014
2484
744
7921
6823
8569
10984
6072
4401
6701
5339
5796
5756
286
7020
4940
3101
14601
13146
608
6954
6622
2979
5108
4704
8876
1129
4592
126
10862
14736
2874
12717
5520
14032
13521
2795
301
12269
11704
207
7126
8670
9979
7916
10659
5007
8178
14289
3048
13969
1839
3190
12351
2046
5243
1422
11868
2127
13601
3744
1568
4284
3177
4698
8496
4573
2083
13819
5726
2517
3135
13479
4073
5787
2377
759
11713
1029
6514
3462
1449
10311
12202
11482
3176
12931
8105
1457
1662
5545
5817
4605
2461
13914
9697
8141
11807
11571
10908
13622
496
2040
14255
9803
8285
6620
12651
1702
14247
12817
8479
9623
7333
7922
7193
828
330
14509
6784
14166
12688
7597
10355
4362
2301
6276
6144
12460
13480
4850
1480
4465
1387
501
11895
9187
11495
9972
5352
6199
9624
12108
2824
12650
13061
9668
4329
11909
4854
5762
11284
5006
8926
5220
5245
4130
12465
13636
13689
13270
10077
6081
12611
3267
4448
5195
4958
11580
5127
7144
12679
184
54
6026
10850
13649
6671
12499
2749
7883
721
10394
5314
5960
9752
7349
4810
1701
6513
14847
10112
9685
10211
11119
4714
1209
5337
11022
2755
10320
256
12353
1336
3720
14839
4201
2656
277
11777
10261
3097
2005
3630
7680
12360
9557
10821
6954
1781
1151
7893
173
12524
6225
13709
10748
159
354
1993
14384
13660
5202
108
9037
3197
14043
10781
7849
1171
8786
11345
8964
10077
4161
5446
3518
12823
3557
18
11230
8808
414
1928
9746
5915
7539
9790
2146
14839
6271
3004
7794
11985
13478
859
423
2445
13750
14548
13208
8052
14968
12583
1907
3390
3711
14224
2150
3382
740
10912
14109
5610
9201
14884
9436
1834
6189
11457
14163
5724
1530
4795
2420
4686
9417
4496
1551
4144
6011
8291
11357
10392
7891
12667
1780
4718
12251
2922
14541
12435
6460
13810
1838
5693
11932
14850
1786
4380
4312
4399
847
13673
14878
5006
4783
6295
7853
4396
60
11254
329
3119
3861
1837
495
2060
3093
4639
8658
11237
6044
1764
7626
14738
14004
6076
6017
10203
1391
5240
14322
9567
4292
5723
10703
12716
2949
6201
314
8049
13857
5035
10324
6326
8914
1409
12965
14736
617
10174
1598
11533
8111
11753
13060
121
3508
12075
1622
13899
5332
1136
6932
256
3758
684
12140
9283
11391
14595
10553
3978
7616
11455
13125
5566
14680
5332
4029
9919
3071
7119
12270
13470
12874
7903
7317
1371
6019
12231
4819
10336
8069
9332
13805
3444
7556
6105
11019
3175
11232
7795
10764
11781
12156
7934
14245
1208
8223
14025
5952
8286
5427
6596
4682
8713
6212
7298
7296
9592
14439
8139
10171
1998
12373
5464
13489
14063
9731
8120
4481
11792
807
9292
7620
877
1573
4628
14055
11629
91
6612
8507
14672
2457
5420
13070
6305
9186
7434
1799
6253
2265
2520
5223
8738
10200
6975
2972
5016
8037
12676
3362
2284
7021
14600
4488
12391
11365
12522
2272
2743
2991
6578
158
3188
739
7561
3386
10657
10559
12039
2993
7029
11982
14662
10498
11351
14688
4856
3514
1196
9163
6112
14790
10441
12993
7311
5586
13736
2272
3601
6028
1950
5144
3962
4149
13938
14106
12046
3007
14223
8041
3121
14753
2007
12408
10576
5250
4679
9969
7054
10115
12188
2303
12615
11532
12486
5603
8074
10180
4295
14034
1281
1439
4761
4213
13690
12355
1065
2470
4421
1890
14188
10193
1638
11341
9139
6991
7087
14872
1643
5215
9123
9777
12988
13918
10035
9097
1031
5730
11146
768
13398
1918
8972
11295
431
5905
6922
2565
2901
10012
6617
12509
4983
8117
3338
5116
13491
13108
3095
12982
1230
11424
4002
5374
7927
7386
1602
13028
12368
3454
10934
9342
10285
4230
12351
8218
3721
9125
5106
9445
14020
9427
8898
5265
1214
7654
2714
11942
319
5334
9264
3136
14865
14476
1170
3309
9090
329
9942
12466
11931
390
5121
14594
3919
12015
14273
3454
9671
11876
7446
3507
2817
1859
4226
7602
6406
8495
9692
11197
10905
7106
8918
12831
3867
4954
821
6287
5455
11339
12548
4974
127
14525
2697
7206
7814
6222
5938
2106
14506
5680
14677
4259
6025
14455
11693
13669
4791
270
9826
13007
10645
1508
4819
4503
3179
9159
7914
11435
14013
14860
9568
2472
7801
9223
1695
6092
3144
8619
2163
5568
5048
9673
10699
5779
8237
3174
5872
13659
13753
13011
2311
5470
12546
10869
9690
7931
3207
6468
11324
4436
610
10970
7966
10642
10599
2131
4284
14758
4422
1147
13407
5314
13282
14289
10506
12545
2389
5622
14755
2168
4387
3124
12996
3220
3377
12938
3103
9053
14489
1822
7783
2546
2778
11360
13067
14768
2958
2343
6493
9518
4939
9033
7880
6427
4906
5684
4008
7682
264
1670
5579
11290
760
3238
5671
7450
5709
5464
12133
14694
2873
12114
4949
12711
1793
7157
12474
9628
8470
6961
4873
12927
8769
5367
1478
11019
14031
83
11145
2453
1392
6628
14727
5682
6701
1578
6422
11691
12703
306
10325
3789
1120
11695
3840
2416
13681
2964
806
4342
7397
10846
6818
4052
3044
1819
7226
2353
4890
985
3886
2673
14528
11155
1577
12870
4328
14641
11658
1689
4190
14953
12485
925
3466
7708
238
4749
38
14790
5906
2663
10560
14291
1747
8390
1794
12464
6555
10847
10191
10314
499
14316
8503
768
7915
8550
4622
3992
12308
4974
13543
9077
4262
4389
6615
7647
3091
12170
4188
3120
10783
10356
5887
8465
10458
5199
41
9227
675
14780
14929
795
10229
6621
3691
3064
2188
7128
3744
5297
644
1473
2876
13987
8032
3098
14687
13209
11374
6952
11743
8907
10562
5971
8290
9691
3378
14973
13986
12824
162
10914
6910
7924
14264
5375
6784
4055
4480
14722
10335
9004
2770
2355
2975
10637
12118
1990
7625
2281
14359
1888
7966
12726
8189
3136
9247
12470
2475
8257
946
2941
2681
11801
13735
8080
9076
11161
10185
14181
7740
4440
4138
9261
2757
10
578
2995
8264
778
10046
2881
4926
10134
3000
12344
14081
9353
211
13469
8047
3708
3832
12355
8513
2987
8438
7220
10568
1285
8821
1966
203
11099
14040
14477
13426
3124
1852
1523
9497
9209
7489
13097
1281
8832
7005
6407
11088
4256
2699
8610
2699
7416
5460
8319
4544
5433
12104
1782
85
10711
13958
5382
3180
8219
4977
1602
9273
2902
2326
9480
14688
4133
14236
8542
9677
14824
9054
13588
13407
12346
4728
11201
8154
3510
10341
5352
6225
8815
3160
2129
12724
13135
9909
9779
8385
8462
3776
11579
4069
533
3429
8835
12029
7662
12893
6328
11503
12760
10944
10884
4241
8283
12392
11681
4816
12515
2304
8824
12905
12506
8149
4686
14546
579
2917
98
12775
5376
8764
8489
6099
7609
11955
10001
2234
6565
10130
9971
3039
3155
14364
4756
8973
512
2369
7355
12613
6473
5172
9442
6630
6037
14187
9158
14548
12146
8753
8090
1857
5547
12421
13411
2501
9904
5234
9204
5084
8244
10153
6397
10398
2927
6409
14038
5034
13107
9491
1284
4102
8379
8679
3541
10394
4129
6829
1401
10059
3243
10518
14866
2474
9513
5263
4435
6895
10594
3169
8193
5785
9512
14845
9381
2191
395
8866
8141
7364
12333
9252
14109
7385
8298
10979
7218
733
2758
6192
9909
1378
8009
11310
1424
3158
14728
3743
1374
10461
9300
14989
9461
7611
13413
148
9501
13469
2668
8056
13028
10499
1441
6945
14123
12255
1334
909
2348
8394
3808
2971
7453
5354
6701
8899
4011
9861
5644
11436
3697
7863
12116
3851
2983
9861
4345
14041
11100
10248
613
5253
7956
14754
9264
2637
210
6651
5810
13303
11433
2769
8712
13216
10276
3681
11285
14852
1959
11796
8883
9156
12573
13677
12387
9692
10359
14143
3195
3868
4785
4903
2617
3733
1555
14054
14429
6863
4016
10863
9772
1611
5728
8424
3216
3993
2027
7191
6978
8698
3401
4708
11588
7960
4742
8079
10584
4915
1932
4906
852
8713
3821
5099
12960
6956
6632
7355
419
11108
1031
63
5166
9557
8352
3912
4089
14766
13204
279
6496
2
12390
5647
9779
13527
13389
5585
9849
1292
13956
13885
3210
8577
8181
13657
1035
6749
771
14256
2325
8502
10429
9021
4927
10585
4610
10142
